time,disp_y_top,react_y_top,stress_yy
0,0,0,0
0.01,-0.002,-0.005161268343372,-0.0004106190812323
0.02,-0.004,-0.01083356025119,-0.0008614535636455
0.03,-0.006,-0.018207038383848,-0.0014471350256597
0.04,-0.008,-0.025191951110933,-0.0020014912475688
0.05,-0.01,-0.032514510524888,-0.0025822243424007
0.06,-0.012,-0.043578067120093,-0.0034602068977572
0.07,-0.014,-0.050332135969372,-0.0039945333055062
0.08,-0.016,-0.059287001977917,-0.0047034533458879
0.09,-0.018,-0.071113214870564,-0.0056405351826877
0.1,-0.02,-0.077890344485352,-0.0061745876291393
0.11,-0.022,-0.0951242702228,-0.0075413122936881
0.12,-0.024,-0.099700320652811,-0.0078982384766304
0.13,-0.026,-0.12231330173405,-0.0096924638813797
0.14,-0.028,-0.12773746325399,-0.010115047412797
0.15,-0.03,-0.14930402575835,-0.011823815658717
0.16,-0.032,-0.15905646572894,-0.012589990281022
0.17,-0.034,-0.17196643607377,-0.013606516428789
0.18,-0.036,-0.19331284911909,-0.015295380389018
0.19,-0.038,-0.20197792047771,-0.015970879537764
0.2,-0.04,-0.2309374134874,-0.01826528962803
0.21,-0.042,-0.23820011175431,-0.01882617225591
0.22,-0.044,-0.27018167361547,-0.021359210440481
0.23,-0.046,-0.28019525581788,-0.022137424925753
0.24,-0.048,-0.30275238368544,-0.023915166602478
0.25,-0.05,-0.3250571530068,-0.025672424502334
0.26,-0.052,-0.33867487610919,-0.026733235036149
0.27,-0.054,-0.37310364190971,-0.02945602708951
0.28,-0.056,-0.38230863983617,-0.030160890253314
0.29,-0.058,-0.42503169854161,-0.033543870200628
0.3,-0.06,-0.43553568246367,-0.034348930181201
0.31,-0.062,-0.47035973438466,-0.037095930025597
0.32,-0.064,-0.50194014502244,-0.039582838388182
0.33,-0.066,-0.51178283269147,-0.040327482023645
0.34,-0.068,-0.51942869643243,-0.040894253271565
0.35,-0.07,-0.59681721979386,-0.04703973457696
0.36,-0.072,-0.6243721200768,-0.049202350472527
0.37,-0.074,-0.63694395957196,-0.050158903122367
0.38,-0.076,-0.64673236724854,-0.050888254942573
0.39,-0.078,-0.68052977957145,-0.053537954346035
0.4,-0.08,-0.75572918188969,-0.059502906584218
0.41,-0.082,-0.77568200065128,-0.061042788968455
0.42,-0.084,-0.78799892165024,-0.061964025382936
0.43,-0.086,-0.79893667906815,-0.062771778729702
0.44,-0.088,-0.877834901794,-0.069021120316174
0.45,-0.09,-0.92417486746312,-0.072669480312926
0.46,-0.092,-0.94075067293119,-0.073924324479639
0.47,-0.094,-0.95336843068134,-0.074855877951185
0.48,-0.096,-0.98417774575903,-0.077243296132205
0.49,-0.098,-1.079456570106,-0.08479886068359
0.5,-0.1,-1.1061433310377,-0.086857242303614
0.51,-0.102,-1.1219169862459,-0.088030309709609
0.52,-0.104,-1.1358958125871,-0.089054638015923
0.53,-0.106,-1.2158245433889,-0.095365754648746
0.54,-0.108,-1.2830686850829,-0.10066729470122
0.55,-0.11,-1.3043133132159,-0.10227044607997
0.56,-0.112,-1.3194186086483,-0.10337251569341
0.57,-0.114,-1.3336040257685,-0.10439725339292
0.58,-0.116,-1.4651340392857,-0.11483270436314
0.59,-0.118,-1.529888772103,-0.1199191869496
0.6,-0.12,-1.5557408333463,-0.12187334609249
0.61,-0.122,-1.5727906280553,-0.12311132504817
0.62,-0.124,-1.5870101917139,-0.12411618648185
0.63,-0.126,-1.6000666978562,-0.12502507205893
0.64,-0.128,-1.6127120846255,-0.12589942411216
0.65,-0.13,-1.7073663823141,-0.13335708191496
0.66,-0.132,-1.8681555048267,-0.14613399672755
0.67,-0.134,-1.9494073094782,-0.15253606537549
0.68,-0.136,-1.9840152655779,-0.15517786416584
0.69,-0.138,-2.0078670879742,-0.15694072347122
0.7,-0.14,-2.027077375285,-0.15831951802471
0.71,-0.142,-2.0443956039076,-0.15953940546527
0.72,-0.144,-2.0607131730022,-0.16067523941882
0.73,-0.146,-2.0765193266652,-0.16176760580566
0.74,-0.148,-2.1628337964128,-0.16852402973662
0.75,-0.15,-2.3449797483373,-0.18298773567974
0.76,-0.152,-2.4550502746247,-0.19167757104216
0.77,-0.154,-2.4981648069178,-0.19496857485647
0.78,-0.156,-2.5247635181668,-0.19691066790903
0.79,-0.158,-2.5457720900405,-0.19839131214374
0.8,-0.16,-2.5649985145421,-0.19972109457671
0.81,-0.162,-2.5835121957973,-0.20098935881362
0.82,-0.164,-2.6016471576704,-0.20222476950405
0.83,-0.166,-2.6194724176133,-0.20343380539307
0.84,-0.168,-2.7893108955066,-0.2168621978099
0.85,-0.17,-2.9895901619972,-0.23276507157744
0.86,-0.172,-3.1192300553444,-0.24299746016782
0.87,-0.174,-3.1779915705374,-0.24751011287278
0.88,-0.176,-3.2158302783151,-0.25031623988302
0.89,-0.178,-3.2442641570229,-0.25234787106618
0.9,-0.18,-3.2680050413202,-0.2539894873567
0.91,-0.182,-3.2887003596553,-0.2553780686025
0.92,-0.184,-3.3075243754393,-0.2566092207026
0.93,-0.186,-3.32515544557,-0.25773981193067
0.94,-0.188,-3.341970411957,-0.25880173247219
0.95,-0.19,-3.3581652960569,-0.25981197805708
0.96,-0.192,-3.3737662939274,-0.26077348659193
0.97,-0.194,-3.3888155273531,-0.26169006936819
0.98,-0.196,-3.40354488471,-0.26257997638114
0.985,-0.197,-3.4109106033063,-0.26302489194846
0.995,-0.199,-3.6335500547803,-0.280650279748
1.005,-0.198,-3.341731082563,-0.25785169784558
1.015,-0.194,-2.3613798384794,-0.18192439251061
1.025,-0.19,-1.4398702900336,-0.11063885049057
1.035,-0.186,-0.64873034232086,-0.049692976312479
1.045,-0.182,-0.12215165055996,-0.0096139207481463
1.055,-0.178,-2.6747987912036e-13,-0.00039269377629676
1.065,-0.174,-6.4544613872234e-13,-0.00039269421867503
1.075,-0.17,-1.2630894077444e-12,-0.00039269468574602
1.085,-0.166,-1.8835746455228e-12,-0.00039269513977118
1.095,-0.162,-2.2954990768554e-12,-0.00039269560721523
1.105,-0.158,-2.2219503369895e-12,-0.00039269605569824
1.115,-0.154,-1.5993239934675e-12,-0.00039269652860607
1.125,-0.15,-2.3826992320093e-12,-0.00039269698028053
1.135,-0.146,-2.6969602207283e-12,-0.00039269744789352
1.145,-0.142,-2.6162746362057e-12,-0.0003926979027029
1.155,-0.138,-2.5714170655855e-12,-0.00039269837033391
1.165,-0.134,-2.4457074176466e-12,-0.00039269881783938
1.175,-0.13,-2.7014400200147e-12,-0.00039269929203833
1.185,-0.126,-2.9485887371322e-12,-0.00039269974004953
1.195,-0.122,-3.6255451537078e-12,-0.00039270020807098
1.205,-0.118,-3.6272891356774e-12,-0.00039270066512479
1.215,-0.114,-4.3515055056703e-12,-0.00039270113294901
1.225,-0.11,-4.3176430969436e-12,-0.00039270158095326
1.235,-0.106,-4.3447784513183e-12,-0.00039270205428741
1.245,-0.102,-5.0069579986583e-12,-0.00039270250246006
1.255,-0.098,-5.5219286530583e-12,-0.00039270297086043
1.265,-0.094,-5.7595193021682e-12,-0.00039270342623537
1.275,-0.09,-6.2879960781772e-12,-0.00039270389246689
1.285,-0.086,-6.4803828671517e-12,-0.00039270434255365
1.295,-0.082,-6.7552498828119e-12,-0.00039270481864542
1.305,-0.078,-6.677504444517e-12,-0.00039270526743792
1.315,-0.074,-6.8095560822418e-12,-0.00039270573351046
1.325,-0.07,-7.1203782362031e-12,-0.00039270618766474
1.335,-0.066,-6.8272982495014e-12,-0.00039270665681397
1.345,-0.062,-7.2959481944026e-12,-0.00039270710550819
1.355,-0.058,-7.5049549882591e-12,-0.00039270757952287
1.365,-0.054,-7.7809042583395e-12,-0.00039270803008725
1.375,-0.05,-7.8082552224098e-12,-0.00039270849769873
1.385,-0.046,-8.4362181077041e-12,-0.00039270895156851
1.395,-0.042,-5.5975685275356e-14,-0.00039269609797793
1.405,-0.038,-1.2177871202629e-12,-0.00039269490281177
1.415,-0.034,-2.3203238621458e-12,-0.00039269437887528
1.425,-0.03,-3.3290083366099e-12,-0.00039269449482661
1.435,-0.026,-4.459213954357e-12,-0.00039269471135315
1.445,-0.022,-5.6087044413175e-12,-0.00039269492965604
1.455,-0.018,3.6874438151226e-13,-0.00039270549127434
1.465,-0.014,1.2346178597424e-13,-0.00039269660030557
1.475,-0.0099999999999996,-1.2384055030914e-13,-0.0003926940158841
1.485,-0.0059999999999996,1.5432867327085e-13,-0.00039271209970368
1.495,-0.0019999999999996,-5.4991500837985e-13,-0.00039269735651186
1.5,0,-6.0563520480139e-13,-0.00039269344230331
