time,disp_y_top,react_y_top,stress_yy
0,0,0,0
0.01,-0.002,-0.0042641871639543,-0.00033919621378881
0.02,-0.004,-0.013595776166095,-0.0010810825928594
0.03,-0.006,-0.025110761168515,-0.0019959324570633
0.04,-0.008,-0.034538945299292,-0.002743969781448
0.05,-0.01,-0.045272586663067,-0.003595154264898
0.06,-0.012,-0.059292377082121,-0.0047066956177758
0.07,-0.014,-0.069373393466435,-0.0055042029340606
0.08,-0.016,-0.088429569600335,-0.0070143519505422
0.09,-0.018,-0.10101884029426,-0.0080092110148219
0.1,-0.02,-0.11506117841563,-0.0091186283515918
0.11,-0.022,-0.13577772511121,-0.010757449135414
0.12,-0.024,-0.14951653553028,-0.011840371077987
0.13,-0.026,-0.16886254716375,-0.013367918153565
0.14,-0.028,-0.19094820617828,-0.015111826874796
0.15,-0.03,-0.20603166084717,-0.016297827147373
0.16,-0.032,-0.23188711277384,-0.018338766332703
0.17,-0.034,-0.25458663101871,-0.020127241791638
0.18,-0.036,-0.27236359858515,-0.021522926139093
0.19,-0.038,-0.30386030859184,-0.02400762551916
0.2,-0.04,-0.32683487967273,-0.025813149766685
0.21,-0.042,-0.35097392196289,-0.027709523983392
0.22,-0.044,-0.38408152467598,-0.030316796119914
0.23,-0.046,-0.40734318911231,-0.032139778518463
0.24,-0.048,-0.43890743086891,-0.034620616036703
0.25,-0.05,-0.47238194795372,-0.03725117014515
0.26,-0.052,-0.49667597165045,-0.039150167882013
0.27,-0.054,-0.53649834377446,-0.042281049224855
0.28,-0.056,-0.56950938264258,-0.0448683287694
0.29,-0.058,-0.5990358581915,-0.047176400618511
0.3,-0.06,-0.64272675595369,-0.050607732212449
0.31,-0.062,-0.67507694015002,-0.05313551980885
0.32,-0.064,-0.71298995650059,-0.056102585177587
0.33,-0.066,-0.75711837119773,-0.0595608982272
0.34,-0.068,-0.78961283774849,-0.062092496445723
0.35,-0.07,-0.83689069498768,-0.065795738610818
0.36,-0.072,-0.87967334703383,-0.069139124570426
0.37,-0.074,-0.91663592926559,-0.072017224609956
0.38,-0.076,-0.97469982578834,-0.076568564386182
0.39,-0.078,-1.0226168946149,-0.080310357077012
0.4,-0.08,-1.0600014747008,-0.08321247867719
0.41,-0.082,-1.0925126420979,-0.085723878928155
0.42,-0.084,-1.1406262401423,-0.089472163209579
0.43,-0.086,-1.2084494829131,-0.094783456598178
0.44,-0.088,-1.2683567786858,-0.09946147833759
0.45,-0.09,-1.3130126054604,-0.1029251241623
0.46,-0.092,-1.3516001753806,-0.10590273011133
0.47,-0.094,-1.394929697487,-0.10925327542998
0.48,-0.096,-1.4719328756418,-0.11527615280466
0.49,-0.098,-1.5413881630548,-0.12069460334297
0.5,-0.1,-1.5965653273547,-0.12497549787431
0.51,-0.102,-1.6422541035797,-0.12849870264503
0.52,-0.104,-1.6827810687183,-0.13160722874682
0.53,-0.106,-1.7617673484033,-0.13776705611531
0.54,-0.108,-1.8411651660708,-0.14395462818535
0.55,-0.11,-1.9066100016906,-0.14903015983579
0.56,-0.112,-1.9595026620085,-0.15310506180577
0.57,-0.114,-2.0060454897207,-0.15667071234776
0.58,-0.116,-2.0800920678226,-0.16241603567614
0.59,-0.118,-2.1686196821656,-0.16930613048561
0.6,-0.12,-2.2449437187871,-0.17522204498395
0.61,-0.122,-2.3051563041975,-0.17985499818913
0.62,-0.124,-2.3584124857372,-0.18393039002145
0.63,-0.126,-2.4270372520308,-0.18922087446986
0.64,-0.128,-2.5244221642426,-0.19679026707416
0.65,-0.13,-2.6101739750733,-0.20343034598109
0.66,-0.132,-2.6785889062026,-0.20868999184739
0.67,-0.134,-2.7389551227637,-0.21330511885194
0.68,-0.136,-2.8039955852109,-0.21828506744064
0.69,-0.138,-2.9164638185406,-0.22702429441583
0.7,-0.14,-3.0219594031091,-0.23520199363941
0.71,-0.142,-3.1162108931294,-0.24248093321007
0.72,-0.144,-3.1924241683504,-0.24832486218903
0.73,-0.146,-3.2594115799602,-0.25343062408773
0.74,-0.148,-3.3205635752173,-0.25806639730977
0.75,-0.15,-3.3772917815621,-0.26234420016027
0.76,-0.152,-3.4302505555,-0.26631606088717
0.77,-0.154,-3.4851918426797,-0.27043918029095
0.78,-0.156,-3.6205923075249,-0.28095031343681
0.79,-0.158,-3.7503019892035,-0.29100048665352
0.8,-0.16,-3.8739299570473,-0.30055936192854
0.81,-0.162,-3.9874973243367,-0.30931212529691
0.82,-0.164,-4.0851019899114,-0.31679232604498
0.83,-0.166,-4.1666207343324,-0.32299163652912
0.84,-0.168,-4.2406039078112,-0.32858511638039
0.85,-0.17,-4.3084150973721,-0.3336816022807
0.86,-0.172,-4.3719918309022,-0.33843473698338
0.87,-0.174,-4.4319979410626,-0.34289698198696
0.88,-0.176,-4.5484985456774,-0.35184042186618
0.89,-0.178,-4.6959051014165,-0.36323185740805
0.9,-0.18,-4.8372082059324,-0.37412927077489
0.91,-0.182,-4.969620535468,-0.38431189125527
0.92,-0.184,-5.0894141692093,-0.39348520841161
0.93,-0.186,-5.1872608824428,-0.40091313175538
0.94,-0.188,-5.2768714542721,-0.40767928751013
0.95,-0.19,-5.3598231569655,-0.41390792366376
0.96,-0.192,-5.436935762993,-0.41966502282101
0.97,-0.194,-5.5086042128582,-0.42498151447489
0.98,-0.196,-5.5915825620169,-0.43118796545828
0.99,-0.198,-5.7685234397869,-0.44484757609497
1,-0.2,-5.9384088012529,-0.45793662327057
1.01,-0.196,-5.3793594424782,-0.41492870989831
1.02,-0.192,-4.8548360741531,-0.37462925091061
1.03,-0.188,-4.3613522598908,-0.33676403336752
1.04,-0.184,-3.868970438141,-0.29888469933173
1.05,-0.18,-3.3777225577413,-0.26099462381767
1.06,-0.176,-2.8889091347396,-0.22319881415373
1.07,-0.172,-2.437635028245,-0.18836920829586
1.08,-0.168,-2.0058137201439,-0.15503843439979
1.09,-0.164,-1.577677823428,-0.12191265341026
1.1,-0.16,-1.2041014382533,-0.093125484565201
1.11,-0.156,-0.84218438261575,-0.065192567559489
1.12,-0.152,-0.52090246052827,-0.040450984576774
1.13,-0.148,-0.24673466216163,-0.019401636114309
1.14,-0.144,-0.037299213873223,-0.003400880651808
1.15,-0.14,5.5731399025192e-13,-0.00056731091738101
1.16,-0.136,-1.7623287896417e-12,-0.00056731091110438
1.17,-0.132,-4.0965300440309e-12,-0.00056731090476962
1.18,-0.128,-6.234810617686e-12,-0.00056731089843486
1.19,-0.124,-8.4960261346806e-12,-0.00056731089210008
1.2,-0.12,-1.085928384805e-11,-0.00056731088576541
1.21,-0.116,-1.3205407352058e-11,-0.00056731087943062
1.22,-0.112,-1.5072934164302e-11,-0.0005673108730958
1.23,-0.108,-1.7173858403873e-11,-0.00056731086676101
1.24,-0.104,-1.9557559448007e-11,-0.00056731086042621
1.25,-0.1,-2.1723978254576e-11,-0.00056731085409144
1.26,-0.096,-2.3835867317015e-11,-0.00056731084775667
1.27,-0.092,-2.6320995090679e-11,-0.00056731084142193
1.28,-0.088,-2.8584857841438e-11,-0.00056731083508714
1.29,-0.084,-3.0704068853184e-11,-0.00056731082875232
1.3,-0.08,-3.3021759789647e-11,-0.00056731082241753
1.31,-0.076,-3.510791123167e-11,-0.00056731081608287
1.32,-0.072,-3.7283174911281e-11,-0.00056731080974814
1.33,-0.068,-3.9372901536226e-11,-0.00056731080341334
1.34,-0.064,-4.1531133771054e-11,-0.00056731079707852
1.35,-0.06,-4.3831540770681e-11,-0.0005673107907437
1.36,-0.056,-4.5979489366538e-11,-0.00056731078440892
1.37,-0.052,-4.7953299434395e-11,-0.00056731077807416
1.38,-0.048,-5.0267533816594e-11,-0.00056731077173937
1.39,-0.044,-5.2433000693656e-11,-0.00056731076540466
1.4,-0.04,-5.4722123235757e-11,-0.00056731075906979
1.41,-0.036,-5.6844884869011e-11,-0.00056731075273498
1.42,-0.032,-5.9180903922173e-11,-0.00056731074640022
1.43,-0.028,-6.1489549957916e-11,-0.00056731074006547
1.44,-0.024,-6.3801377764504e-11,-0.0005673107337307
1.45,-0.02,-6.5916971015524e-11,-0.00056731072739595
1.46,-0.016,-6.8226796238019e-11,-0.00056731072106128
1.47,-0.012,-7.0560449831398e-11,-0.0005673107147264
1.48,-0.0079999999999996,-7.2869829622984e-11,-0.00056731070839165
1.49,-0.0039999999999996,-7.5180888294857e-11,-0.00056731070205688
1.5,0,-7.7494500609283e-11,-0.00056731069572208
