time,disp_y_top,react_y_top,stress_yy
0,0,0,0
0.01,-0.0025,-0.0049517134680071,-0.00039386740939912
0.02,-0.005,-0.013236173260452,-0.0010521716870108
0.03,-0.0075,-0.024820472943482,-0.0019719208146099
0.04,-0.01,-0.034174491878919,-0.0027131610078776
0.05,-0.0125,-0.048839670173868,-0.0038755034156959
0.06,-0.015,-0.061023159495513,-0.0048390543845358
0.07,-0.0175,-0.078976980638562,-0.0062598514583726
0.08,-0.02,-0.093966017193612,-0.0074431245693245
0.09,-0.0225,-0.11239937009726,-0.0088984503554894
0.1,-0.025,-0.13132838046684,-0.010391173871153
0.11,-0.0275,-0.14983195944903,-0.011847988799164
0.12,-0.03,-0.17316328785201,-0.013686418302376
0.13,-0.0325,-0.19385759685123,-0.015312794512761
0.14,-0.035,-0.21964589025998,-0.017341695931343
0.15,-0.0375,-0.24430274410013,-0.019277966782339
0.16,-0.04,-0.27079126177556,-0.021357085666274
0.17,-0.0425,-0.29958147179629,-0.023616272848582
0.18,-0.045,-0.32673799506738,-0.025742503089054
0.19,-0.0475,-0.35992739557634,-0.028345173439165
0.2,-0.05,-0.39021912203606,-0.030714088727421
0.21,-0.0525,-0.42512466459797,-0.033446306049875
0.22,-0.055,-0.45952306224011,-0.036134558156981
0.23,-0.0575,-0.49521154351789,-0.038921595741528
0.24,-0.06,-0.53391945078764,-0.04194469063432
0.25,-0.0625,-0.57053145649981,-0.0447971070925
0.26,-0.065,-0.61354585623121,-0.048154282771145
0.27,-0.0675,-0.65358666725849,-0.051270651609317
0.28,-0.07,-0.69825690868871,-0.054750513592972
0.29,-0.0725,-0.74245818534788,-0.058188405461497
0.3,-0.075,-0.78819937334677,-0.061743825894558
0.31,-0.0775,-0.8367220797808,-0.065515399552056
0.32,-0.08,-0.88428100865507,-0.069205236766032
0.33,-0.0825,-0.93862529077467,-0.073429008766837
0.34,-0.085,-0.98974022750471,-0.077390544234027
0.35,-0.0875,-1.038197403916,-0.081135216781145
0.36,-0.09,-1.0879277617014,-0.084975435786797
0.37,-0.0925,-1.1517202715716,-0.089927562462928
0.38,-0.095,-1.2114540211466,-0.094550947485213
0.39,-0.0975,-1.268076400931,-0.098920694234473
0.4,-0.1,-1.3221218102772,-0.10307931538017
0.41,-0.1025,-1.3883122291528,-0.10819658970749
0.42,-0.105,-1.4569492254566,-0.11350163801851
0.43,-0.1075,-1.5220768779867,-0.11852077467207
0.44,-0.11,-1.5842587258492,-0.12329873856442
0.45,-0.1125,-1.6473630784889,-0.1281428285897
0.46,-0.115,-1.7252992600564,-0.13415805092578
0.47,-0.1175,-1.7992221959431,-0.13984673523205
0.48,-0.12,-1.8696692318668,-0.14525158922132
0.49,-0.1225,-1.9373232759453,-0.15042678996756
0.5,-0.125,-2.0168211109517,-0.15653475216201
0.51,-0.1275,-2.0996961135747,-0.16290260835031
0.52,-0.13,-2.1787684248571,-0.16896002885478
0.53,-0.1325,-2.254660434129,-0.17475634366475
0.54,-0.135,-2.3317831904463,-0.18064166312254
0.55,-0.1375,-2.4236491789801,-0.18768890689114
0.56,-0.14,-2.5113830762018,-0.19439878904111
0.57,-0.1425,-2.5955570428882,-0.20081677324133
0.58,-0.145,-2.6767385180141,-0.20698772403465
0.59,-0.1475,-2.7766824521987,-0.21463876553376
0.6,-0.15,-2.8761726123245,-0.2222436032576
0.61,-0.1525,-2.9718310150809,-0.22953403057774
0.62,-0.155,-3.0638465577782,-0.23652483647027
0.63,-0.1575,-3.1528507370109,-0.24326626300241
0.64,-0.16,-3.2391463562191,-0.2497822816191
0.65,-0.1625,-3.3229174729454,-0.25608766160975
0.66,-0.165,-3.4087578692785,-0.26254692196937
0.67,-0.1675,-3.532699612734,-0.27202067533178
0.68,-0.17,-3.6500987261004,-0.28096360738714
0.69,-0.1725,-3.7632166372629,-0.28955486113597
0.7,-0.175,-3.8722844270196,-0.29781319161059
0.71,-0.1775,-3.9779183326526,-0.30578707173552
0.72,-0.18,-4.0802629149104,-0.31348805662472
0.73,-0.1825,-4.1796848898992,-0.32094528273944
0.74,-0.185,-4.2765486630125,-0.32818738324574
0.75,-0.1875,-4.3808072940156,-0.33600467389964
0.76,-0.19,-4.5177019135566,-0.34640100559879
0.77,-0.1925,-4.6488538450468,-0.35632854643116
0.78,-0.195,-4.7755712733697,-0.36589124684589
0.79,-0.1975,-4.89853403103,-0.37514257797677
0.8,-0.2,-5.0179856211999,-0.38410169990751
0.81,-0.2025,-5.1342288961633,-0.39279264791976
0.82,-0.205,-5.247579677176,-0.40124051360916
0.83,-0.2075,-5.3581108886074,-0.40945120448938
0.84,-0.21,-5.4910254027196,-0.41942479600959
0.85,-0.2125,-5.6481606656675,-0.43130660403836
0.86,-0.215,-5.798949828388,-0.44267007317709
0.87,-0.2175,-5.9444613072781,-0.45359935868272
0.88,-0.22,-6.0858989873161,-0.46419019292284
0.89,-0.2225,-6.2236779118575,-0.47447521235826
0.9,-0.225,-6.3579860788376,-0.48446939056175
0.91,-0.2275,-6.4889483675094,-0.49418283902764
0.92,-0.23,-6.6168216301314,-0.50363590918412
0.93,-0.2325,-6.7420510242659,-0.51286376230708
0.94,-0.235,-6.864697287362,-0.52187114605879
0.95,-0.2375,-6.984979178225,-0.53067540148108
0.96,-0.24,-7.1029619903306,-0.53928179389709
0.97,-0.2425,-7.2187578090046,-0.54769952158858
0.98,-0.245,-7.3326085838986,-0.55594758897483
0.99,-0.2475,-7.4553089273601,-0.56488281088583
1,-0.25,-7.6574629328583,-0.58010811726293
1.01,-0.245,-7.0987225293041,-0.53804221685333
1.02,-0.24,-6.6034654768681,-0.5010099274228
1.03,-0.235,-6.1094886794215,-0.46394351890067
1.04,-0.23,-5.616825021601,-0.4268468882589
1.05,-0.225,-5.1254763105919,-0.38972136425744
1.06,-0.22,-4.6357738237102,-0.35259429151165
1.07,-0.215,-4.1561413862698,-0.31614838212447
1.08,-0.21,-3.7261340892394,-0.28360702998225
1.09,-0.205,-3.2979048665093,-0.25109043388641
1.1,-0.2,-2.8733552205729,-0.2187524350807
1.11,-0.195,-2.4960046485912,-0.19011900369037
1.12,-0.19,-2.1215243961264,-0.16160993484389
1.13,-0.185,-1.7724932827336,-0.13504303223171
1.14,-0.18,-1.4481181935564,-0.11036205171337
1.15,-0.175,-1.1408951360997,-0.086960631790556
1.16,-0.17,-0.86202145395882,-0.065735584085825
1.17,-0.165,-0.6109157796204,-0.046639026555499
1.18,-0.16,-0.39327635368409,-0.030117337091683
1.19,-0.155,-0.20967881110624,-0.016206973999316
1.2,-0.15,-0.068398590171323,-0.0055370390867765
1.21,-0.145,-1.0066656047887e-09,-0.00039629514472393
1.22,-0.14,-3.14908464092e-13,-0.00039629472460116
1.23,-0.135,1.0063020874314e-09,-0.00039629430464946
1.24,-0.13,2.012718798342e-09,-0.00039629388469786
1.25,-0.125,3.0186399743007e-09,-0.00039629346474642
1.26,-0.12,4.025072218004e-09,-0.00039629304479485
1.27,-0.115,5.0313332256149e-09,-0.00039629262484325
1.28,-0.11,6.0376081139002e-09,-0.00039629220489161
1.29,-0.105,7.0438409312508e-09,-0.00039629178494009
1.3,-0.1,8.0501144552057e-09,-0.00039629136498859
1.31,-0.095,9.0563383769028e-09,-0.00039629094503705
1.32,-0.09,1.006241889845e-08,-0.00039629052508551
1.33,-0.085,1.1068700460224e-08,-0.00039629010513394
1.34,-0.08,1.2075084707664e-08,-0.0003962896851824
1.35,-0.075,1.308135650411e-08,-0.00039628926523082
1.36,-0.07,1.4087756808393e-08,-0.00039628884527931
1.37,-0.065,1.5093814716477e-08,-0.00039628842532773
1.38,-0.059999999999999,1.6099881543326e-08,-0.00039628800537608
1.39,-0.054999999999999,1.7106133282659e-08,-0.00039628758542461
1.4,-0.049999999999999,1.811220330646e-08,-0.000396287165473
1.41,-0.044999999999999,1.9118260417722e-08,-0.00039628674552136
1.42,-0.039999999999999,2.0124308491388e-08,-0.00039628632556992
1.43,-0.034999999999999,2.1130371320976e-08,-0.0003962859056184
1.44,-0.029999999999999,2.2136433872674e-08,-0.00039628548566674
1.45,-0.024999999999999,2.3142498746519e-08,-0.00039628506571528
1.46,-0.019999999999999,2.4148758514397e-08,-0.00039628464576357
1.47,-0.014999999999999,2.5154613337093e-08,-0.00039628422581205
1.48,-0.0099999999999995,2.61606782146e-08,-0.00039628380586052
1.49,-0.0049999999999994,2.7166742832134e-08,-0.00039628338590894
1.5,0,2.8172595578365e-08,-0.00039628296595743
