time,disp_y_top,react_y_top,stress_yy
0,0,0,0
0.01,-0.00236,-0.0047456969866644,-0.00037751698273554
0.02,-0.00472,-0.017142882119461,-0.0013631224205917
0.03,-0.00708,-0.026599779160875,-0.0021138700866118
0.04,-0.00944,-0.044062500365577,-0.0035002138641195
0.05,-0.0118,-0.057749843284877,-0.0045849926910404
0.06,-0.01416,-0.079712825876153,-0.00632634291217
0.07,-0.01652,-0.094218132136704,-0.0074729944737145
0.08,-0.01888,-0.11991709383641,-0.0095081480931339
0.09,-0.02124,-0.14039603548478,-0.011126222634159
0.1,-0.0236,-0.16509741020244,-0.013078174155866
0.11,-0.02596,-0.19334395131585,-0.015309783554597
0.12,-0.02832,-0.21674814916136,-0.017154152548494
0.13,-0.03068,-0.25327274818202,-0.020039352478393
0.14,-0.03304,-0.27930475269849,-0.02208766810084
0.15,-0.0354,-0.31874286250431,-0.025199183355124
0.16,-0.03776,-0.35196112806767,-0.027813308077906
0.17,-0.04012,-0.38974317454402,-0.030787190434751
0.18,-0.04248,-0.43171143723331,-0.034090765910403
0.19,-0.04484,-0.46738166992062,-0.036890249406243
0.2,-0.0472,-0.51849122798866,-0.040913770868641
0.21,-0.04956,-0.55661536026396,-0.043901273168368
0.22,-0.05192,-0.61094374296633,-0.048173128360055
0.23,-0.05428,-0.65668297678278,-0.051758344496022
0.24,-0.05664,-0.70895854647618,-0.055858786867067
0.25,-0.059,-0.76395475388718,-0.060171502829253
0.26,-0.06136,-0.81358636508188,-0.06405316909667
0.27,-0.06372,-0.87859932470228,-0.069152954124413
0.28,-0.06608,-0.92880966543658,-0.073071347618185
0.29,-0.06844,-0.99992139671597,-0.078646182892432
0.3,-0.0708,-1.0575817092231,-0.083146901347367
0.31,-0.07316,-1.1262780643514,-0.088519090462313
0.32,-0.07552,-1.1931498154335,-0.093741322679224
0.33,-0.07788,-1.2620590304501,-0.09911946173018
0.34,-0.08024,-1.347071170451,-0.10577145125284
0.35,-0.0826,-1.413642715002,-0.11095206323755
0.36,-0.08496,-1.4714286690995,-0.11542738679609
0.37,-0.08732,-1.5425202768843,-0.12095400692268
0.38,-0.08968,-1.6468311678718,-0.12911563365091
0.39,-0.09204,-1.7328157246958,-0.1358138674538
0.4,-0.0944,-1.8037131774192,-0.14130591311518
0.41,-0.09676,-1.8663595435701,-0.14613431127039
0.42,-0.09912,-1.9783074467603,-0.15487513368817
0.43,-0.10148,-2.0856641531031,-0.16324278912142
0.44,-0.10384,-2.1715224904349,-0.16989505497517
0.45,-0.1062,-2.2469729710227,-0.17571179049934
0.46,-0.10856,-2.3385874242491,-0.18280475208704
0.47,-0.11092,-2.4651987920656,-0.19267111229513
0.48,-0.11328,-2.5697581883203,-0.20077712172936
0.49,-0.11564,-2.6584027597354,-0.20760955867951
0.5,-0.118,-2.7378481094007,-0.21370128848047
0.51,-0.12036,-2.8756394333519,-0.22442039628773
0.52,-0.12272,-3.0015233197087,-0.23418460409775
0.53,-0.12508,-3.1045770257572,-0.24212682680926
0.54,-0.12744,-3.1961486336358,-0.24914606614838
0.55,-0.1298,-3.3138816753829,-0.25823288203974
0.56,-0.13216,-3.460849665817,-0.26963199666332
0.57,-0.13452,-3.5812826290764,-0.27891531172556
0.58,-0.13688,-3.6874939867804,-0.28705814273293
0.59,-0.13924,-3.7884596588362,-0.29477281818269
0.6,-0.1416,-3.9627655113029,-0.30830041250281
0.61,-0.14396,-4.1207373452627,-0.3205180363266
0.62,-0.14632,-4.2535773283581,-0.3307304316544
0.63,-0.14868,-4.3707578869278,-0.33968720038764
0.64,-0.15104,-4.4783356882015,-0.34786883731534
0.65,-0.1534,-4.578018474777,-0.35541103479094
0.66,-0.15576,-4.6715801907395,-0.36245463769978
0.67,-0.15812,-4.7834786275083,-0.37094330941445
0.68,-0.16048,-4.99236863865,-0.38713039177557
0.69,-0.16284,-5.1900577241118,-0.40241057795213
0.7,-0.1652,-5.3683232425969,-0.41613631995516
0.71,-0.16756,-5.5192353432065,-0.42768001407586
0.72,-0.16992,-5.6536413963772,-0.43790015977071
0.73,-0.17228,-5.7774328130933,-0.44726288570534
0.74,-0.17464,-5.8928088676974,-0.45594239039873
0.75,-0.177,-6.0011137875994,-0.46404530649319
0.76,-0.17936,-6.142902989179,-0.47479509669969
0.77,-0.18172,-6.3754310022546,-0.49274269813518
0.78,-0.18408,-6.5952948565831,-0.50966683456611
0.79,-0.18644,-6.7934538930382,-0.52485463826337
0.8,-0.1888,-6.9628995197534,-0.53775161066451
0.81,-0.19116,-7.1172194449565,-0.54943319247963
0.82,-0.19352,-7.2588654190029,-0.56009296104741
0.83,-0.19588,-7.3910503023983,-0.56998505969468
0.84,-0.19824,-7.5149833286422,-0.57920480642516
0.85,-0.2006,-7.6940767275551,-0.59279058414677
0.86,-0.20296,-7.9648152450161,-0.61363929357211
0.87,-0.20532,-8.226124473573,-0.63371467090679
0.88,-0.20768,-8.4716855716466,-0.65251988522279
0.89,-0.21004,-8.6898379136101,-0.6691366785517
0.9,-0.2124,-8.8847595152365,-0.68389436848632
0.91,-0.21476,-9.0596765132487,-0.69704830028731
0.92,-0.21712,-9.2235933274731,-0.70930967479213
0.93,-0.21948,-9.3778174233274,-0.72078342655906
0.94,-0.22184,-9.5237682693294,-0.73158151633179
0.95,-0.2242,-9.6632998998164,-0.74185082320261
0.96,-0.22656,-9.7969095433976,-0.75163114304773
0.97,-0.22892,-9.9250952855508,-0.76096243731113
0.98,-0.23128,-10.047995851736,-0.76985612289949
0.99,-0.23364,-10.166633918179,-0.77839381095304
1,-0.236,-10.281805766555,-0.78663868582091
1.01,-0.23128,-9.3845066860672,-0.71867784660639
1.02,-0.22656,-8.4889839470421,-0.65064213005327
1.03,-0.22184,-7.5955984985162,-0.58256088485142
1.04,-0.21712,-6.7043428786261,-0.51443578451383
1.05,-0.2124,-5.8152162385823,-0.44626849943837
1.06,-0.20768,-4.9345910372235,-0.37856903049996
1.07,-0.20296,-4.1403822911798,-0.31771899483138
1.08,-0.19824,-3.3699742659309,-0.25861725687292
1.09,-0.19352,-2.6404684163835,-0.20264650164137
1.1,-0.1888,-1.9678802335859,-0.1511139312259
1.11,-0.18408,-1.3631437135542,-0.10486843801169
1.12,-0.17936,-0.80984445156144,-0.06258781909892
1.13,-0.17464,-0.35101913167655,-0.027671727002753
1.14,-0.16992,-0.025378212958766,-0.0030634396838119
1.15,-0.1652,-1.9465506443316e-12,-0.0011599242367097
1.16,-0.16048,-5.9301032780037e-13,-0.0011599231088989
1.17,-0.15576,-1.6348803482335e-13,-0.0011599219784453
1.18,-0.15104,1.7086847802411e-12,-0.0011599230414033
1.19,-0.14632,2.8677809215202e-12,-0.0011599241299092
1.2,-0.1416,-6.2885367892824e-13,-0.0011599231129683
1.21,-0.13688,-2.2155712120085e-12,-0.0011599221193892
1.22,-0.13216,1.4375406450612e-12,-0.0011599230650818
1.23,-0.12744,5.3598593679284e-12,-0.0011599241292328
1.24,-0.12272,-1.9240001081997e-12,-0.0011599232456068
1.25,-0.118,-9.8389765607022e-12,-0.0011599224088425
1.26,-0.11328,9.5947785510426e-13,-0.0011599231019931
1.27,-0.10856,1.1331643905681e-11,-0.0011599240531256
1.28,-0.10384,-4.7815382905815e-13,-0.0011599235151627
1.29,-0.09912,-1.1932185194945e-11,-0.0011599230453053
1.3,-0.0944,4.1313150579844e-13,-0.001159923165325
1.31,-0.08968,1.4305006879294e-11,-0.0011599238200121
1.32,-0.08496,-3.333713801567e-13,-0.00115992406373
1.33,-0.08024,-5.1047668425241e-13,-0.0011599230774411
1.34,-0.07552,-7.400030532735e-13,-0.0011599221843727
1.35,-0.0708,-9.8635383443801e-13,-0.0011599217170171
1.36,-0.06608,-1.1858481234597e-12,-0.0011599213012381
1.37,-0.06136,-1.4397353633317e-12,-0.0011599209015265
1.38,-0.05664,-1.6815189411506e-12,-0.0011599205018149
1.39,-0.05192,-1.9344095806916e-12,-0.0011599201021033
1.4,-0.0472,-6.1571325701794e-13,-0.0011599228291822
1.41,-0.04248,7.120084229373e-13,-0.0011599258501471
1.42,-0.03776,1.5539992710478e-12,-0.0011599233268728
1.43,-0.03304,-2.2751556853908e-12,-0.0011599256470848
1.44,-0.02832,3.4810822877962e-13,-0.0011599233047794
1.45,-0.023599999999999,4.7202286990769e-12,-0.0011599210895959
1.46,-0.018879999999999,-8.2322500257067e-13,-0.0011599228282492
1.47,-0.014159999999999,-6.3650242015386e-12,-0.0011599249353493
1.48,-0.0094399999999995,5.741732010499e-13,-0.0011599236798485
1.49,-0.0047199999999995,-1.8050856694248e-12,-0.0011599233775818
1.5,0,-5.4243167862809e-12,-0.001159923391623
