time,disp_y_top,h,react_y_top,stress_yy
0,0,0,0,0
0.01,-0.00226,0.081726825400814,-0.0072062416005449,-0.00057321824449897
0.02,-0.00452,0.081726825400814,-0.0193211606091,-0.0015362126683469
0.03,-0.00678,0.081726825400814,-0.037958049385554,-0.0030167406809591
0.04,-0.00904,0.081726825400814,-0.049696549873625,-0.0039472792363828
0.05,-0.0113,0.081726825400814,-0.071979994428307,-0.0057150850980776
0.06,-0.01356,0.081726825400814,-0.087460407702583,-0.0069402704142312
0.07,-0.01582,0.081726825400814,-0.11396792792058,-0.0090406840001721
0.08,-0.01808,0.081726825400814,-0.13389589246244,-0.010615985820792
0.09,-0.02034,0.081726825400814,-0.15694901016923,-0.012437990548932
0.1,-0.0226,0.081726825400814,-0.18544400758041,-0.014690562293027
0.11,-0.02486,0.081726825400814,-0.20597562624183,-0.016307893033589
0.12,-0.02712,0.081726825400814,-0.24162671233143,-0.019125226086005
0.13,-0.02938,0.081726825400814,-0.26874170511941,-0.02126143902849
0.14,-0.03164,0.081726825400814,-0.30084855453087,-0.023792088651504
0.15,-0.0339,0.081726825400814,-0.33717332502065,-0.026655445164294
0.16,-0.03616,0.081726825400814,-0.36537841044782,-0.028870547157837
0.17,-0.03842,0.081726825400814,-0.41137310487016,-0.032497207437309
0.18,-0.04068,0.081726825400814,-0.44530307796497,-0.035161672462522
0.19,-0.04294,0.081726825400814,-0.48814512230025,-0.038531404198301
0.2,-0.0452,0.081726825400814,-0.531644022094,-0.041950198405417
0.21,-0.04746,0.081726825400814,-0.57008108737047,-0.044963115980794
0.22,-0.04972,0.081726825400814,-0.62388496809609,-0.049194200182941
0.23,-0.05198,0.081726825400814,-0.66484167983469,-0.052400314984742
0.24,-0.05424,0.081726825400814,-0.71994052999095,-0.056726660656758
0.25,-0.0565,0.081726825400814,-0.7698276395698,-0.060635044820054
0.26,-0.05876,0.081726825400814,-0.81985087275692,-0.064549915622127
0.27,-0.06102,0.081726825400814,-0.8808246140592,-0.069331080371086
0.28,-0.06328,0.081726825400814,-0.92861221036592,-0.073059755374911
0.29,-0.06554,0.081726825400814,-0.99727700710635,-0.078443375902513
0.3,-0.0678,0.081726825400814,-1.0530190272607,-0.082795354676649
0.31,-0.07006,0.081726825400814,-1.1165302187268,-0.087759589575882
0.32,-0.07232,0.081726825400814,-1.1828500148435,-0.092942565946608
0.33,-0.07458,0.081726825400814,-1.2425891626971,-0.097597136925606
0.34,-0.07684,0.081726825400814,-1.3276380200957,-0.1042578350431
0.35,-0.0791,0.081726825400814,-1.3950064788106,-0.10950807941636
0.36,-0.08136,0.081726825400814,-1.4525494659595,-0.1139711828012
0.37,-0.08362,0.081726825400814,-1.5038231984369,-0.11792952257286
0.38,-0.08588,0.081726825400814,-1.6040939589313,-0.12577846469325
0.39,-0.08814,0.081726825400814,-1.6957716411517,-0.13293759568606
0.4,-0.0904,0.081726825400814,-1.7687324517313,-0.13860332135815
0.41,-0.09266,0.081726825400814,-1.8323814973476,-0.14352181192844
0.42,-0.09492,0.081726825400814,-1.9054144751421,-0.14917943247286
0.43,-0.09718,0.081726825400814,-2.0180613631471,-0.15797969595692
0.44,-0.09944,0.081726825400814,-2.1133834620842,-0.16539587315664
0.45,-0.1017,0.081726825400814,-2.1924523481714,-0.1715136457744
0.46,-0.10396,0.081726825400814,-2.2627741434288,-0.17692844857112
0.47,-0.10622,0.081726825400814,-2.3610425579168,-0.18455689819486
0.48,-0.10848,0.081726825400814,-2.4802949613433,-0.19384557502873
0.49,-0.11074,0.081726825400814,-2.5780188355434,-0.20141640292895
0.5,-0.113,0.081726825400814,-2.6623407298415,-0.20791389243346
0.51,-0.11526,0.081726825400814,-2.738282445866,-0.21373652746396
0.52,-0.11752,0.081726825400814,-2.8688636812004,-0.22389302965693
0.53,-0.11978,0.081726825400814,-2.9917015083921,-0.23342603485556
0.54,-0.12204,0.081726825400814,-3.0920802239708,-0.24116755342297
0.55,-0.1243,0.081726825400814,-3.181233020133,-0.24800733517734
0.56,-0.12656,0.081726825400814,-3.2796098088073,-0.25557002231594
0.57,-0.12882,0.081726825400814,-3.4243212818337,-0.26680477963641
0.58,-0.13108,0.081726825400814,-3.5470469500216,-0.27628503499677
0.59,-0.13334,0.081726825400814,-3.6527222917416,-0.28440158661018
0.6,-0.1356,0.081726825400814,-3.7477055808151,-0.29165851650779
0.61,-0.13786,0.081726825400814,-3.8870273140256,-0.30242614228037
0.62,-0.14012,0.081726825400814,-4.0484164307837,-0.31493465549189
0.63,-0.14238,0.081726825400814,-4.1876049362908,-0.3256706861483
0.64,-0.14464,0.081726825400814,-4.3063636318291,-0.33477472882775
0.65,-0.1469,0.081726825400814,-4.4148578616608,-0.34305212097247
0.66,-0.14916,0.081726825400814,-4.5148458154287,-0.35064226280453
0.67,-0.15142,0.081726825400814,-4.6084340720912,-0.35771278767952
0.68,-0.15368,0.081726825400814,-4.6964437663435,-0.36432868279611
0.69,-0.15594,0.081726825400814,-4.8354476643441,-0.37498628805988
0.7,-0.1582,0.081726825400814,-5.0329976065774,-0.39028603357811
0.71,-0.16046,0.081726825400814,-5.2192298822868,-0.40467168144501
0.72,-0.16272,0.081726825400814,-5.3879328776542,-0.41765437114739
0.73,-0.16498,0.081726825400814,-5.5291687824011,-0.42844761580385
0.74,-0.16724,0.081726825400814,-5.6573701842433,-0.43819347346479
0.75,-0.1695,0.081726825400814,-5.775891151031,-0.44715729190874
0.76,-0.17176,0.081726825400814,-5.8866676732164,-0.45549240915633
0.77,-0.17402,0.081726825400814,-5.9908654784677,-0.46329134123762
0.78,-0.17628,0.081726825400814,-6.1083850322513,-0.47213573878275
0.79,-0.17854,0.081726825400814,-6.3323008231202,-0.48942405750633
0.8,-0.1808,0.081726825400814,-6.5467516355949,-0.50594322837149
0.81,-0.18306,0.081726825400814,-6.7418265089922,-0.52091171998822
0.82,-0.18532,0.081726825400814,-6.9111927297474,-0.53382912888025
0.83,-0.18758,0.081726825400814,-7.0637013670125,-0.54539544641809
0.84,-0.18984,0.081726825400814,-7.203575046981,-0.55594483014958
0.85,-0.1921,0.081726825400814,-7.3336998992989,-0.56570544609122
0.86,-0.19436,0.081726825400814,-7.4559382018127,-0.57482447051488
0.87,-0.19662,0.081726825400814,-7.5712519021612,-0.58337826015781
0.88,-0.19888,0.081726825400814,-7.8062188733391,-0.60142300135944
0.89,-0.20114,0.081726825400814,-8.0617585354996,-0.62108268133192
0.9,-0.2034,0.081726825400814,-8.3085609181729,-0.64002727822332
0.91,-0.20566,0.081726825400814,-8.5347560767419,-0.65732057492239
0.92,-0.20792,0.081726825400814,-8.7401422796588,-0.67294844247274
0.93,-0.21018,0.081726825400814,-8.920839918882,-0.68660467901997
0.94,-0.21244,0.081726825400814,-9.0863726818697,-0.69904126904834
0.95,-0.2147,0.081726825400814,-9.2421706498698,-0.710687443347
0.96,-0.21696,0.081726825400814,-9.3890953620566,-0.7216126839492
0.97,-0.21922,0.081726825400814,-9.5285722295692,-0.73192929707641
0.98,-0.22148,0.081726825400814,-9.6621861640701,-0.74176288477171
0.99,-0.22374,0.081726825400814,-9.7903561221374,-0.75114700963553
1,-0.226,0.081726825400814,-9.9135192289444,-0.76011667906669
1.01,-0.22148,0.081726825400814,-9.0595769745229,-0.69522153165134
1.02,-0.21696,0.081726825400814,-8.2072851320159,-0.63026200345148
1.03,-0.21244,0.081726825400814,-7.3568912622122,-0.56525885199522
1.04,-0.20792,0.081726825400814,-6.5083905835912,-0.50021350478262
1.05,-0.2034,0.081726825400814,-5.6624298851584,-0.43517897199125
1.06,-0.19888,0.081726825400814,-4.8448664296103,-0.37226340843919
1.07,-0.19436,0.081726825400814,-4.1034543948409,-0.31540035905419
1.08,-0.18984,0.081726825400814,-3.3676291932828,-0.25881296495097
1.09,-0.18532,0.081726825400814,-2.6790958802808,-0.20590191744101
1.1,-0.1808,0.081726825400814,-2.0353159055713,-0.15646492687166
1.11,-0.17628,0.081726825400814,-1.4515604430686,-0.11171217838788
1.12,-0.17176,0.081726825400814,-0.91667726235363,-0.070741245132651
1.13,-0.16724,0.081726825400814,-0.46174686313056,-0.036016469087182
1.14,-0.16272,0.081726825400814,-0.11418677388112,-0.0096276265824639
1.15,-0.1582,0.081726825400814,3.8781528681508e-13,-0.0010198692465683
1.16,-0.15368,0.081726825400814,-1.9904231562918e-13,-0.001019869230417
1.17,-0.14916,0.081726825400814,1.1811727997465e-12,-0.0010198692191189
1.18,-0.14464,0.081726825400814,1.4475533164986e-12,-0.0010198692064771
1.19,-0.14012,0.081726825400814,8.6495588828546e-13,-0.0010198691956126
1.2,-0.1356,0.081726825400814,2.2806013415239e-12,-0.0010198691823282
1.21,-0.13108,0.081726825400814,2.47946279529e-12,-0.0010198691714636
1.22,-0.12656,0.081726825400814,2.3012692622272e-12,-0.0010198691581794
1.23,-0.12204,0.081726825400814,3.2079365731044e-12,-0.001019869147315
1.24,-0.11752,0.081726825400814,3.4877445864793e-12,-0.0010198691340306
1.25,-0.113,0.081726825400814,4.1218228306948e-12,-0.0010198691231663
1.26,-0.10848,0.081726825400814,4.2420765590024e-12,-0.0010198691098819
1.27,-0.10396,0.081726825400814,4.7035884556131e-12,-0.0010198690990175
1.28,-0.09944,0.081726825400814,5.1967327603696e-12,-0.0010198690857331
1.29,-0.09492,0.081726825400814,5.0968098370404e-12,-0.0010198690748687
1.3,-0.0904,0.081726825400814,5.3610446024968e-12,-0.0010198690615845
1.31,-0.08588,0.081726825400814,6.3024181769803e-12,-0.00101986905072
1.32,-0.08136,0.081726825400814,6.2523988214608e-12,-0.0010198690374355
1.33,-0.07684,0.081726825400814,6.223298108397e-14,-0.0010198698383401
1.34,-0.07232,0.081726825400814,-1.2127085173872e-12,-0.001019869191377
1.35,-0.0678,0.081726825400814,-4.5451945565557e-12,-0.0010198685650394
1.36,-0.06328,0.081726825400814,-7.5640080628164e-12,-0.0010198680363867
1.37,-0.05876,0.081726825400814,-1.0956189878885e-11,-0.0010198675314076
1.38,-0.05424,0.081726825400814,-1.218361142294e-11,-0.0010198670264284
1.39,-0.04972,0.081726825400814,-1.5394355210615e-11,-0.0010198665319133
1.4,-0.0452,0.081726825400814,-1.8419608305186e-11,-0.0010198660500642
1.41,-0.04068,0.081726825400814,-1.9752792087266e-11,-0.0010198655684505
1.42,-0.03616,0.081726825400814,-2.2771131695534e-11,-0.0010198650868369
1.43,-0.03164,0.081726825400814,-2.5973267058567e-11,-0.0010198646190168
1.44,-0.02712,0.081726825400814,3.4222951180568e-13,-0.0010198711375817
1.45,-0.0226,0.081726825400814,-8.58075698847e-13,-0.0010198691610173
1.46,-0.01808,0.081726825400814,-3.4817121093085e-12,-0.0010198672184067
1.47,-0.01356,0.081726825400814,-6.2995668218284e-12,-0.0010198658883541
1.48,-0.0090399999999995,0.081726825400814,4.5821432111408e-13,-0.0010198714142916
1.49,-0.0045199999999995,0.081726825400814,-9.2603305225532e-13,-0.0010198691584398
1.5,0,0.081726825400814,-2.3110291061883e-12,-0.0010198669111458
