time,disp_y_top,h,react_y_top,stress_yy
0,0,0,0,0
0.01,-0.00226,0.28173695926618,-0.0086906144534702,-0.00069113688025413
0.02,-0.00452,0.28173695926618,-0.013878365765744,-0.001102963610963
0.03,-0.00678,0.28173695926618,-0.017193110815008,-0.001365532995208
0.04,-0.00904,0.28173695926618,-0.044544353579997,-0.0035396530260303
0.05,-0.0113,0.28173695926618,-0.080740017011849,-0.0064140794039871
0.06,-0.01356,0.28173695926618,-0.10691134994013,-0.008488498987945
0.07,-0.01582,0.28173695926618,-0.12538455579901,-0.0099490377170955
0.08,-0.01808,0.28173695926618,-0.14145782928522,-0.011217140725783
0.09,-0.02034,0.28173695926618,-0.15571804237545,-0.012339423673858
0.1,-0.0226,0.28173695926618,-0.16840178588072,-0.013334783025254
0.11,-0.02486,0.28173695926618,-0.18008696125466,-0.014249324814787
0.12,-0.02712,0.28173695926618,-0.19506185948868,-0.01542431876285
0.13,-0.02938,0.28173695926618,-0.25567958098207,-0.020227456059211
0.14,-0.03164,0.28173695926618,-0.311047362706,-0.024608188455382
0.15,-0.0339,0.28173695926618,-0.36052152132772,-0.028515786635012
0.16,-0.03616,0.28173695926618,-0.39870784109724,-0.031523009139062
0.17,-0.03842,0.28173695926618,-0.43049046297363,-0.034018184932952
0.18,-0.04068,0.28173695926618,-0.45858514765644,-0.036216992788508
0.19,-0.04294,0.28173695926618,-0.48347365114715,-0.038158057037329
0.2,-0.0452,0.28173695926618,-0.50597419701893,-0.039906442849595
0.21,-0.04746,0.28173695926618,-0.52661811242122,-0.041504537708779
0.22,-0.04972,0.28173695926618,-0.58087505822095,-0.045774178286311
0.23,-0.05198,0.28173695926618,-0.66355930315868,-0.052300270700524
0.24,-0.05424,0.28173695926618,-0.74169673817039,-0.05845829653972
0.25,-0.0565,0.28173695926618,-0.80839741008279,-0.063702063491585
0.26,-0.05876,0.28173695926618,-0.86146527951934,-0.067858049864833
0.27,-0.06102,0.28173695926618,-0.90775380780685,-0.071470765767233
0.28,-0.06328,0.28173695926618,-0.94895802130191,-0.074674829740692
0.29,-0.06554,0.28173695926618,-0.98675954216655,-0.077603561641113
0.3,-0.0678,0.28173695926618,-1.0219980005529,-0.080324113327943
0.31,-0.07006,0.28173695926618,-1.0538964004541,-0.082774753231624
0.32,-0.07232,0.28173695926618,-1.172685507347,-0.092132258038833
0.33,-0.07458,0.28173695926618,-1.2877285188671,-0.10118302185427
0.34,-0.07684,0.28173695926618,-1.3977802748004,-0.10982726886094
0.35,-0.0791,0.28173695926618,-1.4985515831426,-0.11772579260441
0.36,-0.08136,0.28173695926618,-1.5853001811008,-0.12450438194708
0.37,-0.08362,0.28173695926618,-1.6618141617278,-0.13046270094227
0.38,-0.08588,0.28173695926618,-1.7296592125816,-0.13572568520153
0.39,-0.08814,0.28173695926618,-1.792561888395,-0.14058890045305
0.4,-0.0904,0.28173695926618,-1.8511431044128,-0.14510187868955
0.41,-0.09266,0.28173695926618,-1.905666952586,-0.14928616652074
0.42,-0.09492,0.28173695926618,-1.9563154610473,-0.15315618507228
0.43,-0.09718,0.28173695926618,-2.0039102767597,-0.15677796062645
0.44,-0.09944,0.28173695926618,-2.0487667555546,-0.16017646784819
0.45,-0.1017,0.28173695926618,-2.0908353098014,-0.16334709774533
0.46,-0.10396,0.28173695926618,-2.1315118197775,-0.16640147903296
0.47,-0.10622,0.28173695926618,-2.1703943976395,-0.16930831908599
0.48,-0.10848,0.28173695926618,-2.2563242576249,-0.17595565717656
0.49,-0.11074,0.28173695926618,-2.4388395276379,-0.19028437183062
0.5,-0.113,0.28173695926618,-2.6144568038635,-0.20404893933723
0.51,-0.11526,0.28173695926618,-2.7843398198664,-0.21734257890349
0.52,-0.11752,0.28173695926618,-2.9493787376396,-0.23023638105638
0.53,-0.11978,0.28173695926618,-3.1045843863005,-0.24233523476611
0.54,-0.12204,0.28173695926618,-3.2448683814599,-0.25323945704275
0.55,-0.1243,0.28173695926618,-3.3693535544513,-0.26287843648534
0.56,-0.12656,0.28173695926618,-3.4765873428046,-0.27113904691568
0.57,-0.12882,0.28173695926618,-3.5768284067114,-0.27883274936626
0.58,-0.13108,0.28173695926618,-3.671182377842,-0.28604740611316
0.59,-0.13334,0.28173695926618,-3.7612548250262,-0.29291162689234
0.6,-0.1356,0.28173695926618,-3.846481104818,-0.29938246589177
0.61,-0.13786,0.28173695926618,-3.9255958751697,-0.30535949610591
0.62,-0.14012,0.28173695926618,-4.0005335262107,-0.31099639043132
0.63,-0.14238,0.28173695926618,-4.0716302779215,-0.31631923619688
0.64,-0.14464,0.28173695926618,-4.1401768488648,-0.32142982138307
0.65,-0.1469,0.28173695926618,-4.2070079405765,-0.32639527951557
0.66,-0.14916,0.28173695926618,-4.2714625063605,-0.33116326235173
0.67,-0.15142,0.28173695926618,-4.4871787499731,-0.34795143450203
0.68,-0.15368,0.28173695926618,-4.7304290529052,-0.36691506808909
0.69,-0.15594,0.28173695926618,-4.9665219420139,-0.38529088198695
0.7,-0.1582,0.28173695926618,-5.1971327716083,-0.40321275715049
0.71,-0.16046,0.28173695926618,-5.4209943858222,-0.42058148833974
0.72,-0.16272,0.28173695926618,-5.63724200672,-0.43732771391627
0.73,-0.16498,0.28173695926618,-5.8460850174393,-0.45346605662011
0.74,-0.16724,0.28173695926618,-6.0485300478822,-0.46907811179952
0.75,-0.1695,0.28173695926618,-6.2336352041119,-0.48330496823741
0.76,-0.17176,0.28173695926618,-6.4084480295666,-0.49669871732487
0.77,-0.17402,0.28173695926618,-6.5693736781368,-0.50897660519111
0.78,-0.17628,0.28173695926618,-6.7179835725983,-0.52026545993979
0.79,-0.17854,0.28173695926618,-6.8613382167524,-0.53112257109181
0.8,-0.1808,0.28173695926618,-6.9921698395787,-0.54097177030172
0.81,-0.18306,0.28173695926618,-7.1132233256197,-0.55002707884576
0.82,-0.18532,0.28173695926618,-7.2290818822984,-0.5586552188985
0.83,-0.18758,0.28173695926618,-7.3414929238274,-0.5669953294754
0.84,-0.18984,0.28173695926618,-7.4507540199353,-0.57507132547959
0.85,-0.1921,0.28173695926618,-7.5549742209353,-0.58273441979107
0.86,-0.19436,0.28173695926618,-7.6559263749292,-0.59012380752753
0.87,-0.19662,0.28173695926618,-7.7528639121042,-0.59717911250425
0.88,-0.19888,0.28173695926618,-7.8477141967119,-0.60405605968409
0.89,-0.20114,0.28173695926618,-7.9408028034009,-0.6107802651959
0.9,-0.2034,0.28173695926618,-8.0306426016684,-0.61723172305817
0.91,-0.20566,0.28173695926618,-8.1173526867329,-0.62342401703026
0.92,-0.20792,0.28173695926618,-8.2019329202537,-0.62943724847288
0.93,-0.21018,0.28173695926618,-8.2853409344584,-0.63534652009568
0.94,-0.21244,0.28173695926618,-8.3677846968888,-0.64116799598926
0.95,-0.2147,0.28173695926618,-8.4484481720866,-0.64683603039575
0.96,-0.21696,0.28173695926618,-8.5257639679548,-0.65222428854157
0.97,-0.21922,0.28173695926618,-8.6006630801732,-0.65740835579084
0.98,-0.22148,0.28173695926618,-8.7466601036926,-0.66824861053217
0.99,-0.22374,0.28173695926618,-9.1565950941057,-0.70008605395387
1,-0.226,0.28173695926618,-9.5565910266916,-0.73110728554747
1.01,-0.22148,0.28173695926618,-8.4564008589993,-0.64604027553616
1.02,-0.21696,0.28173695926618,-7.6712706990696,-0.58644509334824
1.03,-0.21244,0.28173695926618,-6.9615505239211,-0.53283831272577
1.04,-0.20792,0.28173695926618,-6.2535007091857,-0.47919885832872
1.05,-0.2034,0.28173695926618,-5.5471518417801,-0.42553045671737
1.06,-0.19888,0.28173695926618,-4.8425057800946,-0.371834564326
1.07,-0.19436,0.28173695926618,-4.1395641124437,-0.31811262000815
1.08,-0.18984,0.28173695926618,-3.4383282923988,-0.26436604985547
1.09,-0.18532,0.28173695926618,-2.741907243153,-0.21084049032989
1.1,-0.1808,0.28173695926618,-2.0638876131413,-0.15861410260507
1.11,-0.17628,0.28173695926618,-1.45475401696,-0.11177524955446
1.12,-0.17176,0.28173695926618,-0.96634767161431,-0.074514468988705
1.13,-0.16724,0.28173695926618,-0.49096885190953,-0.038161999725529
1.14,-0.16272,0.28173695926618,-0.17465354424001,-0.014243871703174
1.15,-0.1582,0.28173695926618,1.4787682373513e-12,-0.0010718386302885
1.16,-0.15368,0.28173695926618,-1.2339899881e-12,-0.0010718386271114
1.17,-0.14916,0.28173695926618,-1.2296243667373e-12,-0.0010718386239502
1.18,-0.14464,0.28173695926618,-3.0661866427616e-12,-0.0010718386207888
1.19,-0.14012,0.28173695926618,-5.1800093704577e-12,-0.0010718386176276
1.2,-0.1356,0.28173695926618,-5.1923957924375e-12,-0.0010718386144665
1.21,-0.13108,0.28173695926618,-7.1580941688072e-12,-0.0010718386113054
1.22,-0.12656,0.28173695926618,-9.0192636159229e-12,-0.0010718386081441
1.23,-0.12204,0.28173695926618,-1.0891806259125e-11,-0.0010718386049829
1.24,-0.11752,0.28173695926618,-1.3303781355365e-11,-0.0010718386018215
1.25,-0.113,0.28173695926618,-1.4421856895489e-11,-0.0010718385986604
1.26,-0.10848,0.28173695926618,-1.6849310261843e-11,-0.001071838595499
1.27,-0.10396,0.28173695926618,-1.8156386157454e-11,-0.0010718385923378
1.28,-0.09944,0.28173695926618,-1.9677778381895e-11,-0.0010718385891767
1.29,-0.09492,0.28173695926618,-2.1350775275436e-11,-0.0010718385860156
1.3,-0.0904,0.28173695926618,-2.3163637652605e-11,-0.0010718385828544
1.31,-0.08588,0.28173695926618,-2.3584133452582e-11,-0.0010718385796932
1.32,-0.08136,0.28173695926618,-2.5670649737107e-11,-0.0010718385765318
1.33,-0.07684,0.28173695926618,-2.730446995415e-11,-0.0010718385733707
1.34,-0.07232,0.28173695926618,-2.8111770618728e-11,-0.0010718385702096
1.35,-0.0678,0.28173695926618,-2.9723476045575e-11,-0.0010718385670482
1.36,-0.06328,0.28173695926618,-3.191456422764e-11,-0.001071838563887
1.37,-0.05876,0.28173695926618,-3.3649020849275e-11,-0.0010718385607256
1.38,-0.05424,0.28173695926618,-3.46377901303e-11,-0.0010718385575643
1.39,-0.04972,0.28173695926618,-3.6701611852598e-11,-0.0010718385544031
1.4,-0.0452,0.28173695926618,-3.8179731435506e-11,-0.0010718385512418
1.41,-0.04068,0.28173695926618,-3.9134711098427e-11,-0.0010718385548674
1.42,-0.03616,0.28173695926618,-4.0785528063243e-11,-0.0010718385517063
1.43,-0.03164,0.28173695926618,-4.2385471114552e-11,-0.0010718385485451
1.44,-0.02712,0.28173695926618,-4.4037239951277e-11,-0.0010718385453838
1.45,-0.0226,0.28173695926618,-4.4926864179985e-11,-0.0010718385422225
1.46,-0.01808,0.28173695926618,-4.6386067807869e-11,-0.0010718385390613
1.47,-0.01356,0.28173695926618,-4.8034765973978e-11,-0.0010718385359002
1.48,-0.0090399999999995,0.28173695926618,-4.9034014104574e-11,-0.0010718385403298
1.49,-0.0045199999999995,0.28173695926618,-5.068264827565e-11,-0.0010718385371687
1.5,0,0.28173695926618,-5.2331802382653e-11,-0.0010718385340072
