time,disp_y_top,h,react_y_top,stress_yy
0,0,0,0,0
0.01,-0.00226,0.15343116808001,-0.0077794867134311,-0.00061879790563842
0.02,-0.00452,0.15343116808001,-0.023410353224194,-0.0018613103198096
0.03,-0.00678,0.15343116808001,-0.032466123862316,-0.0025797338946243
0.04,-0.00904,0.15343116808001,-0.046919772130513,-0.0037267106512789
0.05,-0.0113,0.15343116808001,-0.074798159040155,-0.0059395479500443
0.06,-0.01356,0.15343116808001,-0.093499374727148,-0.007420670006485
0.07,-0.01582,0.15343116808001,-0.1080679976268,-0.008571592239981
0.08,-0.01808,0.15343116808001,-0.12013566895532,-0.0095221641386146
0.09,-0.02034,0.15343116808001,-0.15759245128399,-0.012490245393842
0.1,-0.0226,0.15343116808001,-0.19105089149324,-0.015137371158389
0.11,-0.02486,0.15343116808001,-0.21473228882807,-0.017004941419431
0.12,-0.02712,0.15343116808001,-0.23417062672539,-0.018532966576073
0.13,-0.02938,0.15343116808001,-0.25362899528525,-0.020060532210988
0.14,-0.03164,0.15343116808001,-0.30312025623722,-0.02397408874734
0.15,-0.0339,0.15343116808001,-0.3449494515372,-0.027274861060427
0.16,-0.03616,0.15343116808001,-0.37555909912672,-0.029680942662772
0.17,-0.03842,0.15343116808001,-0.40168318356257,-0.031727415964849
0.18,-0.04068,0.15343116808001,-0.43222006088629,-0.034122097216771
0.19,-0.04294,0.15343116808001,-0.4915245298896,-0.038801264147389
0.2,-0.0452,0.15343116808001,-0.54129797228789,-0.042718552436105
0.21,-0.04746,0.15343116808001,-0.57890749529423,-0.045665583390858
0.22,-0.04972,0.15343116808001,-0.6113787894664,-0.048200347224396
0.23,-0.05198,0.15343116808001,-0.65529255238167,-0.051641549505556
0.24,-0.05424,0.15343116808001,-0.72467141219878,-0.057103430366476
0.25,-0.0565,0.15343116808001,-0.78157459542799,-0.061569133867598
0.26,-0.05876,0.15343116808001,-0.82674652321325,-0.065098257430582
0.27,-0.06102,0.15343116808001,-0.86571217266958,-0.068129551757103
0.28,-0.06328,0.15343116808001,-0.9259056005689,-0.072844556482224
0.29,-0.06554,0.15343116808001,-1.0032181898903,-0.078915939766794
0.3,-0.0678,0.15343116808001,-1.0659629878324,-0.083824503181797
0.31,-0.07006,0.15343116808001,-1.1181037116907,-0.087885044872687
0.32,-0.07232,0.15343116808001,-1.164139851707,-0.09145486196547
0.33,-0.07458,0.15343116808001,-1.2518926929108,-0.098336356428631
0.34,-0.07684,0.15343116808001,-1.3470758392534,-0.10580155552609
0.35,-0.0791,0.15343116808001,-1.4272012987322,-0.11206397111511
0.36,-0.08136,0.15343116808001,-1.4928365596312,-0.11716928915057
0.37,-0.08362,0.15343116808001,-1.5515611145772,-0.12171879575706
0.38,-0.08588,0.15343116808001,-1.60526939896,-0.12586314158676
0.39,-0.08814,0.15343116808001,-1.6545056110399,-0.12964580798592
0.4,-0.0904,0.15343116808001,-1.7000296354047,-0.13312741004335
0.41,-0.09266,0.15343116808001,-1.7803330523556,-0.13937089689159
0.42,-0.09492,0.15343116808001,-1.9097192976619,-0.14951258213715
0.43,-0.09718,0.15343116808001,-2.0326880485199,-0.15913352273507
0.44,-0.09944,0.15343116808001,-2.1417503677835,-0.16764090270838
0.45,-0.1017,0.15343116808001,-2.2319113867632,-0.17463947414941
0.46,-0.10396,0.15343116808001,-2.3094338109478,-0.18062623050266
0.47,-0.10622,0.15343116808001,-2.3798405595173,-0.18603894774022
0.48,-0.10848,0.15343116808001,-2.4454478448142,-0.19106223221396
0.49,-0.11074,0.15343116808001,-2.5059565526361,-0.19567238761192
0.5,-0.113,0.15343116808001,-2.5773123012135,-0.20113782025409
0.51,-0.11526,0.15343116808001,-2.7338087649389,-0.21336679633085
0.52,-0.11752,0.15343116808001,-2.8827633133976,-0.22498418444003
0.53,-0.11978,0.15343116808001,-3.019490400426,-0.23562000168058
0.54,-0.12204,0.15343116808001,-3.137264789562,-0.2447412807226
0.55,-0.1243,0.15343116808001,-3.2368905943365,-0.25241283813919
0.56,-0.12656,0.15343116808001,-3.3272104300339,-0.25933558977687
0.57,-0.12882,0.15343116808001,-3.4100291589563,-0.26565217673191
0.58,-0.13108,0.15343116808001,-3.4870727894488,-0.27150063479898
0.59,-0.13334,0.15343116808001,-3.5591802495605,-0.27694714725694
0.6,-0.1356,0.15343116808001,-3.7198253486031,-0.2894227051874
0.61,-0.13786,0.15343116808001,-3.8926260179408,-0.30285236130711
0.62,-0.14012,0.15343116808001,-4.0520294939546,-0.31520627865168
0.63,-0.14238,0.15343116808001,-4.1919575517199,-0.32600371775403
0.64,-0.14464,0.15343116808001,-4.3141398442606,-0.33538296347011
0.65,-0.1469,0.15343116808001,-4.4247790017366,-0.34383398075714
0.66,-0.14916,0.15343116808001,-4.5272048792686,-0.35162057307142
0.67,-0.15142,0.15343116808001,-4.6233292360674,-0.35889474102019
0.68,-0.15368,0.15343116808001,-4.7136149477803,-0.3656936451822
0.69,-0.15594,0.15343116808001,-4.8767899007783,-0.37827161235957
0.7,-0.1582,0.15343116808001,-5.0898975361697,-0.39480228964895
0.71,-0.16046,0.15343116808001,-5.2924676107562,-0.41048035551908
0.72,-0.16272,0.15343116808001,-5.4841894313113,-0.42528157678563
0.73,-0.16498,0.15343116808001,-5.6538158680103,-0.43831935385379
0.74,-0.16724,0.15343116808001,-5.8073580352946,-0.4500683131345
0.75,-0.1695,0.15343116808001,-5.9422131617894,-0.46032215824464
0.76,-0.17176,0.15343116808001,-6.0678194437496,-0.46982731634526
0.77,-0.17402,0.15343116808001,-6.1865181475578,-0.47876979424717
0.78,-0.17628,0.15343116808001,-6.2992087732009,-0.48722104851602
0.79,-0.17854,0.15343116808001,-6.4068603490459,-0.49525841303923
0.8,-0.1808,0.15343116808001,-6.510449924587,-0.50296056847047
0.81,-0.18306,0.15343116808001,-6.6095759676813,-0.51029616261407
0.82,-0.18532,0.15343116808001,-6.704302981271,-0.51726906654385
0.83,-0.18758,0.15343116808001,-6.7958695050561,-0.52397855925339
0.84,-0.18984,0.15343116808001,-6.8847086020844,-0.53046002917681
0.85,-0.1921,0.15343116808001,-7.0018044369676,-0.5391790341355
0.86,-0.19436,0.15343116808001,-7.2874938265711,-0.56130419558221
0.87,-0.19662,0.15343116808001,-7.5654459725452,-0.58279361816822
0.88,-0.19888,0.15343116808001,-7.8325383058655,-0.60339895198795
0.89,-0.20114,0.15343116808001,-8.0908208465047,-0.62328103126624
0.9,-0.2034,0.15343116808001,-8.3297596218006,-0.64161101747035
0.91,-0.20566,0.15343116808001,-8.5558284370228,-0.65890230716374
0.92,-0.20792,0.15343116808001,-8.7594969713072,-0.67439996011014
0.93,-0.21018,0.15343116808001,-8.9365771655299,-0.68777590404248
0.94,-0.21244,0.15343116808001,-9.1016974402935,-0.70018726806536
0.95,-0.2147,0.15343116808001,-9.2567234741691,-0.71177990847193
0.96,-0.21696,0.15343116808001,-9.4032952427906,-0.72268332784296
0.97,-0.21922,0.15343116808001,-9.5434200385281,-0.73305722318077
0.98,-0.22148,0.15343116808001,-9.6782353596158,-0.74299249242506
0.99,-0.22374,0.15343116808001,-9.8067197865156,-0.75240745084883
1,-0.226,0.15343116808001,-9.9302485739814,-0.76141336470492
1.01,-0.22148,0.15343116808001,-9.0737779550357,-0.69630930421503
1.02,-0.21696,0.15343116808001,-8.2189543744571,-0.63114052797906
1.03,-0.21244,0.15343116808001,-7.3660480377165,-0.56592951831954
1.04,-0.20792,0.15343116808001,-6.5150574088492,-0.50067788593222
1.05,-0.2034,0.15343116808001,-5.6659841879346,-0.43538726620729
1.06,-0.19888,0.15343116808001,-4.8232988229816,-0.37041522584192
1.07,-0.19436,0.15343116808001,-4.070546595919,-0.312594171845
1.08,-0.18984,0.15343116808001,-3.4000175966824,-0.2613329817063
1.09,-0.18532,0.15343116808001,-2.7317505518835,-0.21009682083333
1.1,-0.1808,0.15343116808001,-2.0713406836534,-0.15932955556158
1.11,-0.17628,0.15343116808001,-1.463319878246,-0.1126267553189
1.12,-0.17176,0.15343116808001,-0.92255657671087,-0.071185302413074
1.13,-0.16724,0.15343116808001,-0.46728302580335,-0.036436752973882
1.14,-0.16272,0.15343116808001,-0.12240411017632,-0.010265762379305
1.15,-0.1582,0.15343116808001,-2.1236565279558e-08,-0.0010350233270068
1.16,-0.15368,0.15343116808001,-2.6280624777894e-13,-0.0010350122965974
1.17,-0.14916,0.15343116808001,2.1237398352982e-08,-0.001035001266428
1.18,-0.14464,0.15343116808001,7.514149079433e-13,-0.0010350122963531
1.19,-0.14012,0.15343116808001,-2.1235582124482e-08,-0.0010350233262782
1.2,-0.1356,0.15343116808001,-2.3246425028261e-13,-0.0010350123054095
1.21,-0.13108,0.15343116808001,2.1233221761668e-08,-0.0010350012923342
1.22,-0.12656,0.15343116808001,2.8113625590389e-13,-0.0010350123041489
1.23,-0.12204,0.15343116808001,-2.1231987796322e-08,-0.0010350233296594
1.24,-0.11752,0.15343116808001,-2.7272385670868e-13,-0.0010350123188915
1.25,-0.113,0.15343116808001,2.1232680093489e-08,-0.0010350013221497
1.26,-0.10848,0.15343116808001,1.5919831828536e-12,-0.0010350123152379
1.27,-0.10396,0.15343116808001,-2.1227789009811e-08,-0.0010350233338472
1.28,-0.09944,0.15343116808001,-2.4418939431809e-12,-0.0010350123442356
1.29,-0.09492,0.15343116808001,2.122289936498e-08,-0.0010350013819132
1.3,-0.0904,0.15343116808001,1.165095663786e-12,-0.0010350123444182
1.31,-0.08588,0.15343116808001,-2.1220010192876e-08,-0.0010350233528701
1.32,-0.08136,0.15343116808001,-2.4701265101542e-13,-0.0010350124001205
1.33,-0.07684,0.15343116808001,2.1218948834217e-08,-0.0010350015007344
1.34,-0.07232,0.15343116808001,7.095019220033e-13,-0.0010350124006951
1.35,-0.0678,0.15343116808001,-2.1219805433915e-08,-0.0010350234046087
1.36,-0.06328,0.15343116808001,5.3101776177188e-13,-0.001035012505004
1.37,-0.05876,0.15343116808001,2.1221015065284e-08,-0.0010350017080601
1.38,-0.05424,0.15343116808001,-1.2279260453493e-14,-0.0010350125087086
1.39,-0.04972,0.15343116808001,-2.1222410368922e-08,-0.0010350234987523
1.4,-0.0452,0.15343116808001,-6.6092799602105e-13,-0.0010350126961779
1.41,-0.04068,0.15343116808001,2.1223207592119e-08,-0.0010350020921818
1.42,-0.03616,0.15343116808001,-2.6912982984491e-13,-0.0010350127172308
1.43,-0.03164,0.15343116808001,-2.7880135198654e-14,-0.0010350126996231
1.44,-0.02712,0.15343116808001,2.4003790898312e-13,-0.0010350126820157
1.45,-0.0226,0.15343116808001,3.1545942548168e-12,-0.0010350128030011
1.46,-0.01808,0.15343116808001,3.4291597762992e-12,-0.0010350129766638
1.47,-0.01356,0.15343116808001,3.7396541534973e-12,-0.0010350131503264
1.48,-0.0090399999999995,0.15343116808001,6.6594443209943e-12,-0.0010350133239891
1.49,-0.0045199999999995,0.15343116808001,-4.7648212144532e-15,-0.001035013429637
1.5,0,0.15343116808001,-6.3843753146577e-15,-0.0010350127121286
