time,disp_y_top,react_y_top,stress_yy
0,0,0,0
0.01,-0.00226,-0.0034480397399946,-0.00027434162722633
0.02,-0.00452,-0.011728209370185,-0.00093257987985926
0.03,-0.00678,-0.018051566956576,-0.0014345661186473
0.04,-0.00904,-0.028911369750422,-0.0022967145819911
0.05,-0.0113,-0.038587399742949,-0.0030638995669614
0.06,-0.01356,-0.051595968577126,-0.0040952696653393
0.07,-0.01582,-0.059941285251599,-0.0047546332213655
0.08,-0.01808,-0.078563488520921,-0.0062307528500722
0.09,-0.02034,-0.088469860196874,-0.0070121103204714
0.1,-0.0226,-0.10865549525158,-0.0086102685649187
0.11,-0.02486,-0.12261965588789,-0.0097121215985631
0.12,-0.02712,-0.1411320337562,-0.011174424087424
0.13,-0.02938,-0.16138873224909,-0.012774284277683
0.14,-0.03164,-0.1777847932936,-0.0140651163666
0.15,-0.0339,-0.20483079634392,-0.016202195982924
0.16,-0.03616,-0.22059284203756,-0.017439149636145
0.17,-0.03842,-0.25248479877537,-0.01995833557456
0.18,-0.04068,-0.2722224235567,-0.021508064782579
0.19,-0.04294,-0.30174714076854,-0.023834590185748
0.2,-0.0452,-0.32811415505789,-0.025908090043033
0.21,-0.04746,-0.35471562668444,-0.027997514187459
0.22,-0.04972,-0.38864725625466,-0.030668806977119
0.23,-0.05198,-0.41262622354825,-0.032544793439971
0.24,-0.05424,-0.45413124120194,-0.035814208984211
0.25,-0.0565,-0.4795581493682,-0.037800505928466
0.26,-0.05876,-0.52251744291028,-0.041179924336836
0.27,-0.06102,-0.5533925368326,-0.043594865481333
0.28,-0.06328,-0.59246819466333,-0.04665905945578
0.29,-0.06554,-0.63155788016139,-0.049722392644976
0.3,-0.0678,-0.66757334188499,-0.052536908759645
0.31,-0.07006,-0.7148536069852,-0.05624641243238
0.32,-0.07232,-0.74770832466139,-0.058803005711577
0.33,-0.07458,-0.80930678746442,-0.063646068752138
0.34,-0.07684,-0.84970089283425,-0.066796414951312
0.35,-0.0791,-0.88069521175796,-0.069192734324111
0.36,-0.08136,-0.91346592740191,-0.071726089923635
0.37,-0.08362,-0.99208006136898,-0.077911065857395
0.38,-0.08588,-1.0466649182185,-0.082177935209526
0.39,-0.08814,-1.0854644538837,-0.085181702600769
0.4,-0.0904,-1.1178241302819,-0.087666313973278
0.41,-0.09266,-1.1878939555902,-0.093152699483634
0.42,-0.09492,-1.2623177766682,-0.09898406509227
0.43,-0.09718,-1.3118606815832,-0.1028282059166
0.44,-0.09944,-1.3516792277224,-0.10589027979937
0.45,-0.1017,-1.3971338998938,-0.10939548274074
0.46,-0.10396,-1.4900944265995,-0.11668537906605
0.47,-0.10622,-1.5555209004454,-0.12177695124287
0.48,-0.10848,-1.6038011587704,-0.12549517880847
0.49,-0.11074,-1.6444345315522,-0.12859601895914
0.5,-0.113,-1.7316715477895,-0.13540684418661
0.51,-0.11526,-1.81713837152,-0.14207457567471
0.52,-0.11752,-1.8762369376771,-0.14663518605562
0.53,-0.11978,-1.9246348808595,-0.15033427540793
0.54,-0.12204,-1.9883501989917,-0.15524694120454
0.55,-0.1243,-2.0934040185406,-0.16345264324528
0.56,-0.12656,-2.1675059635826,-0.16918771178227
0.57,-0.12882,-2.2250048498676,-0.17359131475244
0.58,-0.13108,-2.2739354594533,-0.17730208803856
0.59,-0.13334,-2.3904980406028,-0.18639842001576
0.6,-0.1356,-2.4983036335801,-0.19479283602229
0.61,-0.13786,-2.5781598015409,-0.20095328178988
0.62,-0.14012,-2.6429634863195,-0.20590482301471
0.63,-0.14238,-2.6986000150253,-0.2101151245019
0.64,-0.14464,-2.7487098119307,-0.21387568739584
0.65,-0.1469,-2.7953074832183,-0.21734759456821
0.66,-0.14916,-2.8464118669023,-0.22117160897225
0.67,-0.15142,-3.0065286053033,-0.23369291418774
0.68,-0.15368,-3.1492240844174,-0.24481825323762
0.69,-0.15594,-3.2632614705335,-0.25365263632307
0.7,-0.1582,-3.3465713400003,-0.26003007310542
0.71,-0.16046,-3.4182432198194,-0.26546798919744
0.72,-0.16272,-3.480640384075,-0.27015400340451
0.73,-0.16498,-3.5378304448812,-0.27441394689755
0.74,-0.16724,-3.591166471529,-0.27835678424267
0.75,-0.1695,-3.6691726766188,-0.2842608358044
0.76,-0.17176,-3.8453366263123,-0.29799638160032
0.77,-0.17402,-3.9990183411238,-0.30993450938008
0.78,-0.17628,-4.1230274670717,-0.3194996718736
0.79,-0.17854,-4.2175058068915,-0.32670136319133
0.8,-0.1808,-4.2990076198763,-0.33285495600673
0.81,-0.18306,-4.3708222724957,-0.33822094739575
0.82,-0.18532,-4.4363163223131,-0.34306955582909
0.83,-0.18758,-4.4975770788683,-0.34756852221157
0.84,-0.18984,-4.5754080839594,-0.35338099203062
0.85,-0.1921,-4.7788816461543,-0.36922132387023
0.86,-0.19436,-4.9639461463781,-0.383585959756
0.87,-0.19662,-5.1241843194529,-0.39596103088529
0.88,-0.19888,-5.2576524612816,-0.40618975610612
0.89,-0.20114,-5.3639967242629,-0.41424269678741
0.9,-0.2034,-5.4588015903728,-0.42136018001769
0.91,-0.20566,-5.5438312917768,-0.42768211033725
0.92,-0.20792,-5.6213708675217,-0.43339148829552
0.93,-0.21018,-5.6936136998764,-0.43866483671447
0.94,-0.21244,-5.7616700141158,-0.44359135381175
0.95,-0.2147,-5.826533818581,-0.44825080335507
0.96,-0.21696,-5.8885576796425,-0.45267223183109
0.97,-0.21922,-5.9483633255877,-0.45690577245828
0.98,-0.22148,-6.0061976909671,-0.46097164868767
0.99,-0.22374,-6.0620087009307,-0.46486544437693
1,-0.226,-6.2039812988655,-0.47564111402098
1.01,-0.22148,-5.3449207717822,-0.40989882338528
1.02,-0.21696,-4.5272482226894,-0.34737763624097
1.03,-0.21244,-3.71219645678,-0.28487476611012
1.04,-0.20792,-2.9040504331145,-0.222736922928
1.05,-0.2034,-2.1407402256207,-0.16403512006143
1.06,-0.19888,-1.4515617275369,-0.11120308610989
1.07,-0.19436,-0.84143650821847,-0.064582484549449
1.08,-0.18984,-0.32957359329452,-0.025665326420593
1.09,-0.18532,-4.397270003361e-13,-0.00080039578834705
1.1,-0.1808,1.1423300033084e-13,-0.00080039777459805
1.11,-0.17628,-2.7836416609521e-13,-0.00080039977022363
1.12,-0.17176,-1.6895241377267e-13,-0.00080039619412949
1.13,-0.16724,1.5310801891865e-12,-0.00080039401820076
1.14,-0.16272,-1.9682478438971e-12,-0.00080039721519653
1.15,-0.1582,1.6464084429287e-12,-0.00080039648336227
1.16,-0.15368,4.5250727383222e-12,-0.00080039598190245
1.17,-0.14916,8.9230179650085e-12,-0.00080039585691156
1.18,-0.14464,1.2621337714514e-11,-0.00080039581582028
1.19,-0.14012,1.5629680379052e-11,-0.00080039579774625
1.2,-0.1356,-1.1150079120501e-12,-0.0008003994674083
1.21,-0.13108,-3.7257388861757e-13,-0.00080039722618
1.22,-0.12656,3.1666574066723e-13,-0.00080039576600511
1.23,-0.12204,-1.6617419407126e-12,-0.00080040009990453
1.24,-0.11752,2.377447903022e-12,-0.00080039750922658
1.25,-0.113,7.3540429193662e-12,-0.00080039601903356
1.26,-0.10848,-1.9379075319963e-12,-0.00080040106989269
1.27,-0.10396,1.5424929323938e-12,-0.00080039784013947
1.28,-0.09944,-2.1665215406541e-12,-0.0008004003485257
1.29,-0.09492,1.924683711222e-12,-0.00080039780757255
1.3,-0.0904,-2.6716089786266e-12,-0.00080040027926571
1.31,-0.08588,1.3925933651816e-12,-0.00080039780928769
1.32,-0.08136,-8.9661705743495e-13,-0.00080040027840883
1.33,-0.07684,-6.2362979550253e-13,-0.00080039780929066
1.34,-0.07232,-1.4356011767813e-12,-0.00080040027840996
1.35,-0.0678,1.3953502727717e-13,-0.00080039780928953
1.36,-0.06328,-4.2996444417549e-14,-0.00080040027840835
1.37,-0.05876,2.3194346147705e-12,-0.000800397809291
1.38,-0.05424,-5.9507801823384e-13,-0.00080040027840866
1.39,-0.04972,8.1856364304259e-13,-0.00080039780928957
1.4,-0.0452,-1.9531072485495e-12,-0.00080040027840895
1.41,-0.04068,1.8953942673591e-13,-0.00080039780929057
1.42,-0.03616,-4.6555376758138e-13,-0.00080040027840935
1.43,-0.03164,-7.2132479686965e-13,-0.0008003978092899
1.44,-0.02712,1.5436029478954e-12,-0.00080040027840874
1.45,-0.0226,-7.6458087636729e-13,-0.0008003978092907
1.46,-0.01808,2.0270845989452e-12,-0.00080040027841033
1.47,-0.01356,-2.5300679486315e-12,-0.00080039780928992
1.48,-0.0090399999999995,1.8092006622087e-12,-0.00080040027840857
1.49,-0.0045199999999995,-6.1155598881962e-13,-0.00080039780929069
1.5,0,-3.4760088314927e-13,-0.00080040027840746
