time,disp_y_top,react_y_top,stress_yy
0,0,0,0
0.01,-0.00286,-0.0047597187838862,-0.0022686674210581
0.02,-0.00572,-0.0054843781409938,-0.0026126976266652
0.03,-0.00858,-0.0061532174710652,-0.0029283151145207
0.04,-0.01144,-0.0078711618609564,-0.0037447224096947
0.05,-0.0143,-0.013282915491815,-0.0063243898980533
0.06,-0.01716,-0.018567309129392,-0.0088397160548329
0.07,-0.02002,-0.025119891758441,-0.011957355033801
0.08,-0.02288,-0.030223422532417,-0.014378621065885
0.09,-0.02574,-0.033874278339876,-0.016102614599928
0.1,-0.0286,-0.038443268486957,-0.018262263789356
0.11,-0.03146,-0.047798807149016,-0.022704470083465
0.12,-0.03432,-0.058791423982911,-0.027921968662423
0.13,-0.03718,-0.067824701097787,-0.032197495288813
0.14,-0.04004,-0.074647222038973,-0.035411868230926
0.15,-0.0429,-0.080217128634617,-0.038022893591449
0.16,-0.04576,-0.087985492708624,-0.04168004842866
0.17,-0.04862,-0.10220883378645,-0.048415136736986
0.18,-0.05148,-0.11465063908396,-0.054291072614498
0.19,-0.05434,-0.1241293213009,-0.058744273708715
0.2,-0.0572,-0.13418164177357,-0.063462736468056
0.21,-0.06006,-0.14264810832817,-0.067416969173721
0.22,-0.06292,-0.1590041553552,-0.07513521278979
0.23,-0.06578,-0.17382777956754,-0.082111401511175
0.24,-0.06864,-0.18871870598725,-0.089109403599178
0.25,-0.0715,-0.20215767597992,-0.09540451472689
0.26,-0.07436,-0.21367445828158,-0.10077305035704
0.27,-0.07722,-0.22936772590274,-0.10813050277059
0.28,-0.08008,-0.24721432872661,-0.11650589826488
0.29,-0.08294,-0.26612643993217,-0.1253775733123
0.3,-0.0858,-0.28157775613858,-0.13258553003307
0.31,-0.08866,-0.29453104787483,-0.13858939642264
0.32,-0.09152,-0.31127471931948,-0.14639491337978
0.33,-0.09438,-0.3339007759989,-0.15699825920713
0.34,-0.09724,-0.3551210232378,-0.16691599818103
0.35,-0.1001,-0.37222769060061,-0.17485595704021
0.36,-0.10296,-0.38871850235041,-0.18248974278523
0.37,-0.10582,-0.41147615489948,-0.19310609971082
0.38,-0.10868,-0.43493438609199,-0.20404262655606
0.39,-0.11154,-0.45729626529605,-0.21444124323094
0.4,-0.1144,-0.47812315132168,-0.22409238777867
0.41,-0.11726,-0.498961239657,-0.23373427787466
0.42,-0.12012,-0.52417983796205,-0.24545536100735
0.43,-0.12298,-0.54709646397558,-0.25606077534923
0.44,-0.12584,-0.57178634207883,-0.26749915383157
0.45,-0.1287,-0.59786897496568,-0.27958544149281
0.46,-0.13156,-0.6230680353788,-0.29123130225576
0.47,-0.13442,-0.64954097678395,-0.30347013926204
0.48,-0.13728,-0.67800246895209,-0.31664146763526
0.49,-0.14014,-0.70423218928094,-0.32872835922427
0.5,-0.143,-0.73010942330199,-0.34062863768122
0.51,-0.14586,-0.7564338463811,-0.35272685119261
0.52,-0.14872,-0.78782218609122,-0.36722470356807
0.53,-0.15158,-0.81659328048299,-0.38045045688518
0.54,-0.15444,-0.84767590461022,-0.39476239457196
0.55,-0.1573,-0.87954707974427,-0.40943049281027
0.56,-0.16016,-0.91336630568185,-0.42500754147944
0.57,-0.16302,-0.94565394079776,-0.43983099023395
0.58,-0.16588,-0.97904385676726,-0.45516140802071
0.59,-0.16874,-1.0080145139164,-0.46835877657875
0.6,-0.1716,-1.0380368778081,-0.48204170479566
0.61,-0.17446,-1.0692449148429,-0.4962702094846
0.62,-0.17732,-1.0992650706527,-0.50990987312909
0.63,-0.18018,-1.1341055864339,-0.52583428335122
0.64,-0.18304,-1.1705068756703,-0.54247905375303
0.65,-0.1859,-1.2130806114299,-0.56204456648688
0.66,-0.18876,-1.2523264233744,-0.57999199118462
0.67,-0.19162,-1.2890762971621,-0.5967201379063
0.68,-0.19448,-1.3232818017,-0.61220705468771
0.69,-0.19734,-1.3613170396316,-0.62949741181167
0.7,-0.2002,-1.4048387939849,-0.64938137062732
0.71,-0.20306,-1.4501028054451,-0.67006897640806
0.72,-0.20592,-1.4962742877649,-0.69116148792377
0.73,-0.20878,-1.5403809390168,-0.71123966422121
0.74,-0.21164,-1.5805164518537,-0.7293917287805
0.75,-0.2145,-1.6200916970034,-0.74725114546495
0.76,-0.21736,-1.6576236440203,-0.7641063324133
0.77,-0.22022,-1.6931170380392,-0.77996004102696
0.78,-0.22308,-1.7272033521263,-0.7951138620912
0.79,-0.22594,-1.7663127054324,-0.81264654281542
0.8,-0.2288,-1.8131521635295,-0.83384249012797
0.81,-0.23166,-1.8567339214759,-0.85345223993068
0.82,-0.23452,-1.9001461555008,-0.87295434306591
0.83,-0.23738,-1.9416040841647,-0.89149328146076
0.84,-0.24024,-1.981401531411,-0.90920861692739
0.85,-0.2431,-2.0197637707493,-0.92620903397145
0.86,-0.24596,-2.0679359540447,-0.94785462536101
0.87,-0.24882,-2.1227465183637,-0.97265327962741
0.88,-0.25168,-2.17542176246,-0.99638184096081
0.89,-0.25454,-2.2264518166676,-1.0192904216884
0.9,-0.2574,-2.2780376543948,-1.0424289867947
0.91,-0.26026,-2.3249569816512,-1.0633024414139
0.92,-0.26312,-2.3682243505032,-1.0823944280611
0.93,-0.26598,-2.4081765261924,-1.0998655107403
0.94,-0.26884,-2.471423696262,-1.1284339995756
0.95,-0.2717,-2.5406745204148,-1.1598168596767
0.96,-0.27456,-2.6055022381787,-1.1890534923734
0.97,-0.27742,-2.6652133942057,-1.2158064620557
0.98,-0.28028,-2.7207882613048,-1.2405428475054
0.99,-0.28314,-2.7752488918339,-1.2647128216157
1,-0.286,-2.8285941393421,-1.2883060603125
1.01,-0.28028,-2.5631585548418,-1.1677643092394
1.02,-0.27456,-2.3013364021049,-1.0485610412336
1.03,-0.26884,-2.0405464916202,-0.92940107262447
1.04,-0.26312,-1.7914201079441,-0.81547978152908
1.05,-0.2574,-1.5574979976008,-0.70867200453892
1.06,-0.25168,-1.3307638128672,-0.60495592957394
1.07,-0.24596,-1.1241230860277,-0.51065124309641
1.08,-0.24024,-0.9233758662001,-0.41894816412426
1.09,-0.23452,-0.73288431079984,-0.33195912306244
1.1,-0.2288,-0.56028408500916,-0.25330195727845
1.11,-0.22308,-0.40558604329318,-0.18302297426879
1.12,-0.21736,-0.26849113975064,-0.12092097492419
1.13,-0.21164,-0.1512553317439,-0.068058774930664
1.14,-0.20592,-0.056512984567965,-0.025576030329966
1.15,-0.2002,4.3609698415413e-15,-0.00047760768797488
1.155,-0.19734,-7.829086722955e-10,-0.0004776068766044
1.165,-0.19162,-2.3479799849059e-09,-0.0004776052549172
1.175,-0.1859,-3.9131389635811e-09,-0.00047760363323011
1.185,-0.18018,-2.1458538655639e-13,-0.00047760768797589
1.195,-0.17446,3.9127521331861e-09,-0.00047761174272146
1.205,-0.16874,1.5669746237067e-13,-0.00047760768797184
1.215,-0.16302,-3.9124629639057e-09,-0.00047760363322183
1.225,-0.1573,-1.4764414666973e-13,-0.00047760768797551
1.235,-0.15158,3.9121538542622e-09,-0.00047761174272922
1.245,-0.14586,2.0498064788044e-13,-0.00047760768796892
1.255,-0.14014,-3.9117712561427e-09,-0.00047760363320863
1.265,-0.13442,-1.4671426990329e-13,-0.00047760768797656
1.275,-0.1287,3.9114846887834e-09,-0.00047761174274432
1.285,-0.12298,1.4610379785279e-13,-0.00047760768797246
1.295,-0.11726,-3.9111718356509e-09,-0.00047760363320005
1.305,-0.11154,-9.698435816796e-14,-0.00047760768797424
1.315,-0.10582,3.9109453079331e-09,-0.00047761174274842
1.325,-0.1001,1.1862691079401e-13,-0.00047760768796954
1.335,-0.094379999999999,-3.9103704663746e-09,-0.00047760363319058
1.345,-0.088659999999999,-1.7089054792283e-13,-0.00047760768797691
1.355,-0.082939999999999,3.9100161377374e-09,-0.00047761174276354
1.365,-0.077219999999999,1.4712325376647e-13,-0.00047760768797098
1.375,-0.071499999999999,-3.9097507102457e-09,-0.00047760363317832
1.385,-0.065779999999999,-9.8990943340219e-14,-0.00047760768797461
1.395,-0.060059999999999,3.9095239045465e-09,-0.00047761174277016
1.405,-0.054339999999999,1.4297960558002e-13,-0.0004776076879713
1.415,-0.048619999999999,-3.9092302726837e-09,-0.00047760363317211
1.425,-0.042899999999999,-1.4099902138109e-13,-0.00047760768797566
1.435,-0.037179999999999,3.9089699436119e-09,-0.00047761174277941
1.445,-0.031459999999999,1.2074262954408e-13,-0.00047760768796981
1.455,-0.025739999999999,-3.9090824907502e-09,-0.00047760363316002
1.465,-0.020019999999999,-1.6396654316407e-13,-0.00047760768797678
1.475,-0.014299999999999,3.9087561176767e-09,-0.0004776117427935
1.485,-0.0085799999999994,1.5306400626879e-13,-0.00047760768797058
1.495,-0.0028599999999994,-3.9084548968587e-09,-0.00047760363314754
1.5,0,-1.0681584053616e-13,-0.00047760768797447
