time,disp_y_top,react_y_top,stress_yy
0,0,0,0
0.01,-0.0015,-5.3163596909733e-05,-2.5370269742758e-05
0.02,-0.003,-6.0107643625531e-05,-2.8670474508099e-05
