time,disp_y_top,react_y_top,stress_yy
0,0,0,0
0.01,-0.00226,-0.0053655413697781,-0.0025873263110696
