time,disp_y_top,react_y_top,stress_yy
0,0,0,0
0.01,-0.00226,-0.004576578,-0.002182907
0.02,-0.00452,-0.00519611,-0.002476431
0.03,-0.00678,-0.00574943,-0.002737923
0.04,-0.00904,-0.006270994,-0.00298387
0.05,-0.0113,-0.007609439,-0.003619856
0.06,-0.01356,-0.011989077,-0.005708061
0.07,-0.01582,-0.015929593,-0.007584327
0.08,-0.01808,-0.020791833,-0.009898805
0.09,-0.02034,-0.025830972,-0.012295365
0.1,-0.0226,-0.029872288,-0.014212646
0.11,-0.02486,-0.032902467,-0.015644884
0.12,-0.02712,-0.035442279,-0.01684077
0.13,-0.02938,-0.040570058,-0.019271343
0.14,-0.03164,-0.048657467,-0.023112705
0.15,-0.0339,-0.057412948,-0.027268828
0.16,-0.03616,-0.064918021,-0.030823902
0.17,-0.03842,-0.071204337,-0.033793141
0.18,-0.04068,-0.076160867,-0.036124265
0.19,-0.04294,-0.080466182,-0.038141134
0.2,-0.0452,-0.086227582,-0.040851106
0.21,-0.04746,-0.096764621,-0.04583961
0.22,-0.04972,-0.107461806,-0.050899575
0.23,-0.05198,-0.116766658,-0.055289372
0.24,-0.05424,-0.124064672,-0.058716215
0.25,-0.0565,-0.132030362,-0.062456287
0.26,-0.05876,-0.139260736,-0.065840514
0.27,-0.06102,-0.148251561,-0.070063022
0.28,-0.06328,-0.161106615,-0.07612701
0.29,-0.06554,-0.172841092,-0.081649382
0.3,-0.0678,-0.184615594,-0.087184457
0.31,-0.07006,-0.195813398,-0.092437845
0.32,-0.07232,-0.205919892,-0.097164502
0.33,-0.07458,-0.214749789,-0.101276248
0.34,-0.07684,-0.227145177,-0.107087761
0.35,-0.0791,-0.24138833,-0.113775613
0.36,-0.08136,-0.256383285,-0.120815027
0.37,-0.08362,-0.270278717,-0.12732111
0.38,-0.08588,-0.282257226,-0.132905809
0.39,-0.08814,-0.292658526,-0.13772968
0.4,-0.0904,-0.304125493,-0.143056625
0.41,-0.09266,-0.319963251,-0.150465596
0.42,-0.09492,-0.338485631,-0.159148243
0.43,-0.09718,-0.355054395,-0.166889101
0.44,-0.09944,-0.36901597,-0.17337657
0.45,-0.1017,-0.381285414,-0.179047853
0.46,-0.10396,-0.395515034,-0.185647671
0.47,-0.10622,-0.415386086,-0.194936055
0.48,-0.10848,-0.433734251,-0.203487922
0.49,-0.11074,-0.451980634,-0.21198231
0.5,-0.113,-0.468094443,-0.219448608
0.51,-0.11526,-0.484867027,-0.227220497
0.52,-0.11752,-0.501669387,-0.234998314
0.53,-0.11978,-0.521884959,-0.244398234
0.54,-0.12204,-0.54078921,-0.253161629
0.55,-0.1243,-0.558451081,-0.261322915
0.56,-0.12656,-0.57871033,-0.27071428
0.57,-0.12882,-0.599660296,-0.280425172
0.58,-0.13108,-0.619805552,-0.289740033
0.59,-0.13334,-0.639253339,-0.29871108
0.6,-0.1356,-0.661881834,-0.309191765
0.61,-0.13786,-0.684382592,-0.319600246
0.62,-0.14012,-0.704865843,-0.329033949
0.63,-0.14238,-0.725649001,-0.338599488
0.64,-0.14464,-0.745770523,-0.34783806
0.65,-0.1469,-0.768868999,-0.358489909
0.66,-0.14916,-0.793272274,-0.369750735
0.67,-0.15142,-0.815766459,-0.380085922
0.68,-0.15368,-0.839812745,-0.391150985
0.69,-0.15594,-0.865022438,-0.402759692
0.7,-0.1582,-0.891591861,-0.41500601
0.71,-0.16046,-0.917698585,-0.427016438
0.72,-0.16272,-0.943074266,-0.438664051
0.73,-0.16498,-0.969926262,-0.451005149
0.74,-0.16724,-0.994404921,-0.462198681
0.75,-0.1695,-1.01637882,-0.472182453
0.76,-0.17176,-1.040690773,-0.483272876
0.77,-0.17402,-1.065508375,-0.494592318
0.78,-0.17628,-1.088891411,-0.5052118
0.79,-0.17854,-1.11405886,-0.516673355
0.8,-0.1808,-1.142704486,-0.529783019
0.81,-0.18306,-1.171823472,-0.543103199
0.82,-0.18532,-1.205537764,-0.558600635
0.83,-0.18758,-1.237722147,-0.573349984
0.84,-0.18984,-1.267991471,-0.587167057
0.85,-0.1921,-1.295760499,-0.59977279
0.86,-0.19436,-1.322917072,-0.612070039
0.87,-0.19662,-1.350648911,-0.624626097
0.88,-0.19888,-1.386919608,-0.641243317
0.89,-0.20114,-1.420727287,-0.656667934
0.9,-0.2034,-1.456764304,-0.673140027
0.91,-0.20566,-1.493257096,-0.689811099
0.92,-0.20792,-1.528303752,-0.705773668
0.93,-0.21018,-1.561884722,-0.721018159
0.94,-0.21244,-1.592419313,-0.734790011
0.95,-0.2147,-1.623943839,-0.749018973
0.96,-0.21696,-1.653593736,-0.762334975
0.97,-0.21922,-1.682002251,-0.775040607
0.98,-0.22148,-1.709662055,-0.787372093
0.99,-0.22374,-1.736291478,-0.799193445
1,-0.226,-1.768525021,-0.813680364
1.01,-0.22148,-1.618936268,-0.745137469
1.02,-0.21696,-1.472446482,-0.677930297
1.03,-0.21244,-1.326762695,-0.610913587
1.04,-0.20792,-1.182061908,-0.54419402
1.05,-0.2034,-1.039318697,-0.478267365
1.06,-0.19888,-0.904950124,-0.416248806
1.07,-0.19436,-0.776038424,-0.356742037
1.08,-0.18984,-0.656071164,-0.301393578
1.09,-0.18532,-0.541760617,-0.248665511
1.1,-0.1808,-0.433509685,-0.198749929
1.11,-0.17628,-0.335303235,-0.153553126
1.12,-0.17176,-0.245498721,-0.11228827
1.13,-0.16724,-0.164507933,-0.075140115
1.14,-0.16272,-0.095332988,-0.043528044
1.15,-0.1582,-0.03908079,-0.01793503
1.16,-0.15368,-0.000849976,-0.000668138
1.165,-0.15142,-0.006322308,-0.00315138
1.175,-0.1469,2.28E-14,-0.000287281
1.185,-0.14238,1.59E-14,-0.000287281
1.195,-0.13786,-3.08E-13,-0.000287281
1.205,-0.13334,-6.28E-13,-0.000287281
1.215,-0.12882,-6.30E-13,-0.000287281
1.225,-0.1243,-9.57E-13,-0.000287281
1.235,-0.11978,-1.28E-12,-0.000287281
1.245,-0.11526,-1.43E-12,-0.000287281
1.255,-0.11074,-1.60E-12,-0.000287281
1.265,-0.10622,-1.95E-12,-0.000287281
1.275,-0.1017,-2.13E-12,-0.000287281
1.285,-0.09718,-2.31E-12,-0.000287281
1.295,-0.09266,-2.62E-12,-0.000287281
1.305,-0.08814,-2.96E-12,-0.000287281
1.315,-0.08362,-2.96E-12,-0.000287281
1.325,-0.0791,-3.29E-12,-0.000287281
1.335,-0.07458,-3.61E-12,-0.000287281
1.345,-0.07006,-3.94E-12,-0.000287281
1.355,-0.06554,-3.92E-12,-0.000287281
1.365,-0.06102,-4.26E-12,-0.000287281
1.375,-0.0565,-4.58E-12,-0.000287281
1.385,-0.05198,-4.90E-12,-0.000287281
1.395,-0.04746,-4.89E-12,-0.000287281
1.405,-0.04294,-5.20E-12,-0.000287281
1.415,-0.03842,-5.54E-12,-0.000287281
1.425,-0.0339,-5.53E-12,-0.000287281
1.435,-0.02938,-5.85E-12,-0.000287281
1.445,-0.02486,-6.18E-12,-0.000287281
1.455,-0.02034,-6.51E-12,-0.000287281
1.465,-0.01582,-6.47E-12,-0.000287281
1.475,-0.0113,-6.80E-12,-0.000287281
1.485,-0.00678,-7.13E-12,-0.000287281
1.495,-0.00226,-7.10E-12,-0.000287281
1.5,0,-7.43E-12,-0.000287281