time,disp_y_top,react_y_top,stress_yy
0,0,0,0
0.01,-0.00226,-0.00065640457020855,-0.00031327375631927
