time,disp_y_top,react_y_top,stress_yy
0,0,0,0
0.01,-0.00226,-0.0086841665277671,-0.00069062375616791
0.02,-0.00452,-0.013874220860845,-0.0011026333050517
0.03,-0.00678,-0.017188160118489,-0.0013651383170786
0.04,-0.00904,-0.044407276020868,-0.0035287428766588
0.05,-0.0113,-0.080508346572311,-0.0063956404210429
0.06,-0.01356,-0.10672593525475,-0.0084737238509818
0.07,-0.01582,-0.12520191308146,-0.0099344741348654
0.08,-0.01808,-0.14126758880785,-0.011201965546702
0.09,-0.02034,-0.15551887245041,-0.012323532963947
0.1,-0.0226,-0.1681951066786,-0.013318290319923
0.11,-0.02486,-0.17987267929222,-0.014232224531686
0.12,-0.02712,-0.1940007557461,-0.015339838738075
0.13,-0.02938,-0.25429476835971,-0.020117193212793
0.14,-0.03164,-0.30942418075885,-0.024478936332168
0.15,-0.0339,-0.35890848495988,-0.028387289743179
0.16,-0.03616,-0.39722335746295,-0.031404673525563
0.17,-0.03842,-0.428806778375,-0.033883945712578
0.18,-0.04068,-0.45680121352501,-0.036074782255442
0.19,-0.04294,-0.48169138371487,-0.038016023513191
0.2,-0.0452,-0.50422814170425,-0.039767375626642
0.21,-0.04746,-0.52494368725874,-0.041371244286234
0.22,-0.04972,-0.57493323541271,-0.04530135841554
0.23,-0.05198,-0.65650685947616,-0.051739096568193
0.24,-0.05424,-0.7331190557718,-0.057775857468289
0.25,-0.0565,-0.80042680819142,-0.063067600011837
0.26,-0.05876,-0.85408287071951,-0.06727000488487
0.27,-0.06102,-0.89901925358349,-0.070775181529251
0.28,-0.06328,-0.93926689987849,-0.073903013924368
0.29,-0.06554,-0.97643320966791,-0.076781321996804
0.3,-0.0678,-1.0107131165017,-0.079425708735399
0.31,-0.07006,-1.0426417478058,-0.081878821794868
0.32,-0.07232,-1.143487506463,-0.08981003911986
0.33,-0.07458,-1.2458474494021,-0.097854647984991
0.34,-0.07684,-1.3406929218576,-0.10529396677778
0.35,-0.0791,-1.4221071372549,-0.11165953939359
0.36,-0.08136,-1.4875689556862,-0.11675214393982
0.37,-0.08362,-1.5463066519166,-0.12130392640868
0.38,-0.08588,-1.6000430291319,-0.12545172997189
0.39,-0.08814,-1.6497000407203,-0.12926914672706
0.4,-0.0904,-1.6955953610788,-0.13278154322779
0.41,-0.09266,-1.7755545049423,-0.13899812487505
0.42,-0.09492,-1.9045301512787,-0.14910633147102
0.43,-0.09718,-2.0270296298669,-0.15868965881349
0.44,-0.09944,-2.1360446095505,-0.16719297573273
0.45,-0.1017,-2.2267344696861,-0.1742334404029
0.46,-0.10396,-2.3052151990396,-0.18029674227882
0.47,-0.10622,-2.3766229925182,-0.18578991647344
0.48,-0.10848,-2.4423740441207,-0.19082541614861
0.49,-0.11074,-2.5036977378877,-0.19550119636133
0.5,-0.113,-2.5672883940981,-0.20034956637477
0.51,-0.11526,-2.7232170910007,-0.21253335498151
0.52,-0.11752,-2.8714420327883,-0.22409313523959
0.53,-0.11978,-3.0068238500412,-0.23462223250344
0.54,-0.12204,-3.1227684408714,-0.24359911457603
0.55,-0.1243,-3.221598199904,-0.25120826100179
0.56,-0.12656,-3.3116208315852,-0.25810778254142
0.57,-0.12882,-3.3947421514394,-0.26444899099237
0.58,-0.13108,-3.4723610233112,-0.27034314736684
0.59,-0.13334,-3.5453267207389,-0.27585802150175
0.6,-0.1356,-3.7009325664803,-0.28793295697613
0.61,-0.13786,-3.8732354396698,-0.30132322681433
0.62,-0.14012,-4.0339280673624,-0.31377890046386
0.63,-0.14238,-4.1758546875301,-0.32473395515765
0.64,-0.14464,-4.2959295720244,-0.33394500754328
0.65,-0.1469,-4.4053054793319,-0.3422953214994
0.66,-0.14916,-4.5061755153812,-0.34995867412601
0.67,-0.15142,-4.6000743267347,-0.35705693439568
0.68,-0.15368,-4.6886379516511,-0.36371970108686
0.69,-0.15594,-4.8266581968904,-0.37430087028986
0.7,-0.1582,-5.0234010300219,-0.38953642570758
0.71,-0.16046,-5.2103499454442,-0.40397947122276
0.72,-0.16272,-5.3793347479883,-0.41698447466641
0.73,-0.16498,-5.5212732433875,-0.42783411115974
0.74,-0.16724,-5.6506096454729,-0.43767097249197
0.75,-0.1695,-5.7700621233647,-0.44670996343276
0.76,-0.17176,-5.8817412657624,-0.45511804584566
0.77,-0.17402,-5.9868993959197,-0.4629946354494
0.78,-0.17628,-6.0920003833231,-0.47085372979794
0.79,-0.17854,-6.3153001813308,-0.48809405104858
0.8,-0.1808,-6.5283510102276,-0.50450383143945
0.81,-0.18306,-6.7248211093776,-0.51958337920758
0.82,-0.18532,-6.8956059980446,-0.53261333980593
0.83,-0.18758,-7.0467442349166,-0.54407142039559
0.84,-0.18984,-7.1861768471352,-0.55458522192936
0.85,-0.1921,-7.3161264921399,-0.56433101925421
0.86,-0.19436,-7.4381197474647,-0.57342999282787
0.87,-0.19662,-7.5537485426221,-0.5820082640168
0.88,-0.19888,-7.7643771817051,-0.59812084223433
0.89,-0.20114,-8.0032658876639,-0.61646306166421
0.9,-0.2034,-8.2270402612662,-0.63358833103699
0.91,-0.20566,-8.4253494933689,-0.64867968364441
0.92,-0.20792,-8.5975741094391,-0.66168876437919
0.93,-0.21018,-8.7565020737988,-0.67362593287233
0.94,-0.21244,-8.9045160155857,-0.68467941784328
0.95,-0.2147,-9.0436208909015,-0.6950080158104
0.96,-0.21696,-9.175428393766,-0.70473978812863
0.97,-0.21922,-9.3758376604012,-0.71990464711596
0.98,-0.22148,-9.6389109546969,-0.74003131429417
0.99,-0.22374,-9.8866717950854,-0.75892392162203
1,-0.226,-10.109854485675,-0.77585061746727
1.01,-0.22148,-9.1838285117502,-0.70506621692989
1.02,-0.21696,-8.2597759169676,-0.6342316375291
1.03,-0.21244,-7.3949665967608,-0.56804150635482
1.04,-0.20792,-6.5609204010287,-0.50418105860475
1.05,-0.2034,-5.7288452501277,-0.44028947787295
1.06,-0.19888,-4.9029044399438,-0.37670158922606
1.07,-0.19436,-4.1586631594205,-0.31961794081818
1.08,-0.18984,-3.4224045448658,-0.26300893038696
1.09,-0.18532,-2.7264743242825,-0.20950913831953
1.1,-0.1808,-2.0814291217874,-0.1599816829003
1.11,-0.17628,-1.4839567602729,-0.11413366387172
1.12,-0.17176,-0.93900074936997,-0.07236864592415
1.13,-0.16724,-0.47833926263307,-0.037204180145897
1.14,-0.16272,-0.1270041628061,-0.0105374139458
1.15,-0.1582,-1.2108492614333e-12,-0.00095796993420348
1.16,-0.15368,-3.1504496853364e-13,-0.00095796974962359
1.17,-0.14916,2.4365505002077e-12,-0.00095796956621018
1.18,-0.14464,3.4670160368517e-12,-0.00095796938401083
1.19,-0.14012,4.6852192349449e-12,-0.00095796920151196
1.2,-0.1356,7.8874657710525e-12,-0.0009579690186382
1.21,-0.13108,8.3419970827977e-12,-0.00095796883522492
1.22,-0.12656,9.5486612526944e-12,-0.00095796865235107
1.23,-0.12204,1.091987666164e-11,-0.00095796846985241
1.24,-0.11752,1.1037815592899e-11,-0.0009579682869787
1.25,-0.113,1.2365700794258e-11,-0.00095796810356518
1.26,-0.10848,1.2512315082351e-11,-0.00095796792069141
1.27,-0.10396,1.4509067123135e-11,-0.00095796773819268
1.28,-0.09944,1.5845309314183e-11,-0.00095796755531883
1.29,-0.09492,1.7084522012568e-11,-0.0009579673719056
1.3,-0.0904,1.6981972843257e-11,-0.00095796718903181
1.31,-0.08588,1.9806648828992e-11,-0.00095796700653298
1.32,-0.08136,2.106308097197e-11,-0.0009579668236592
1.33,-0.07684,2.0966768963647e-11,-0.00095796664024588
1.34,-0.07232,2.4006687603608e-11,-0.00095796645737233
1.35,-0.0678,2.5040472406568e-11,-0.00095796627487355
1.36,-0.06328,-1.266127400677e-13,-0.0009579703631307
1.37,-0.05876,-5.9373565905376e-13,-0.0009579697491882
1.38,-0.05424,1.197254696032e-12,-0.00095796915342329
1.39,-0.04972,7.1686216736463e-13,-0.0009579685940352
1.4,-0.0452,2.2794013211484e-13,-0.00095796817662541
1.41,-0.04068,2.5641419495765e-12,-0.00095796779513604
1.42,-0.03616,2.0801979964144e-12,-0.00095796741364647
1.43,-0.03164,5.7605779684149e-13,-0.00095797108154545
1.44,-0.02712,1.0614733003428e-12,-0.00095796982178257
1.45,-0.0226,4.27266590706e-12,-0.0009579686019815
1.46,-0.01808,4.7766757708929e-12,-0.00095796752905076
1.47,-0.01356,-5.1671422471159e-13,-0.00095797132425639
1.48,-0.0090399999999995,-3.3873721021075e-13,-0.00095796987246306
1.49,-0.0045199999999995,-2.8759112672143e-12,-0.0009579685016621
1.5,0,-5.3870656799472e-12,-0.00095796737339159
